Cu8
1.0
   3.6150000000000002    0.0000000000000000    0.0000000000000002
  -0.0000000000000002    3.6150000000000002    0.0000000000000002
   0.0000000000000000    0.0000000000000000   21.6900000000000013
Cu
8
direct
   0.0000000000000000    0.0000000000000000    0.0000000000000000 Cu
   0.5000000000000000    0.4999999999999999   -0.0000000000000000 Cu
   0.0000000000000000    0.4999999999999999    0.0833333333333333 Cu
   0.4999999999999999    0.0000000000000000    0.0833333333333333 Cu
   0.0000000000000000    0.0000000000000000    0.1666666666666667 Cu
   0.5000000000000000    0.4999999999999999    0.1666666666666667 Cu
   0.0000000000000000    0.4999999999999999    0.2500000000000000 Cu
   0.4999999999999999    0.0000000000000000    0.2500000000000000 Cu
