POSCAR_mgoxx
0.999999999998
1.1 0.0 0.0 
0.0 3.0059111118 0.0 
0.0 0.0 39.7867240906 
Mg Mg O O Co Co Pt Pt Pt Pt 
1 1 1 1 1 1 1 1 1 1 
Cartesian
0.0 0.0 2.2
1.502955018 1.502955018 2.172317059
1.502955018 1.502955018 0.0
0.0 0.0 2.103237072
0.0 0.0 4.169284102
1.502955018 1.502955018 5.258992208
0.0 0.0 6.831103094
1.502955018 1.502955018 8.673330747
0.0 0.0 10.430370326
1.502955018 1.502955018 12.145563476
