POSCAR_nio
4.16991476
0.5 0.5 1.0 
0.5 1.0 0.5 
1.0 0.5 0.5 
Niup Nidn O O 
1 1 1 1 
Cartesian
0.0 0.0 0.0
4.16991476 4.16991476 4.16991476
2.08495738 2.08495738 2.08495738
6.25487214 6.25487214 6.25487214
