POSCAR_srtio3
3.9
1 0 0 
0 1 0 
0 0 1 
Sr Ti O O O 
1 1 1 1 1 
Cartesian
1.95 1.95 1.95
0.0 0.0 0.0
1.95 0.0 0.0
0.0 1.95 0.0
0.0 0.0 1.95
