POSCAR_10-Opal.vasp2ctrl
0.999999999998
4.9709000587 0.0 0.0 
0.0 4.9709000587 0.0 
0.0 0.0 6.9278001785 
Si Si Si Si O O O O O O O O 
1 1 1 1 1 1 1 1 1 1 1 1 
Cartesian
1.493755495 1.493755495 0.0
3.47714441599 3.47714441599 3.46390008899
0.991694533998 3.97920567199 1.731950045
3.97920567199 0.991694533998 5.19585013399
1.189039274 0.515482321999 1.2373051
3.78186078499 4.45541781099 4.70120529299
1.969967782 3.67448930399 2.96925524799
3.00093227699 1.296410755 6.43315533799
1.296410755 3.00093227699 0.494644943999
3.67448930399 1.969967782 3.95854492999
0.515482321999 1.189039274 5.69049497499
4.45541781099 3.78186078499 2.22659488599
