XCrySDen XSF file
1.0
        3.0059111118         0.0000000000         0.0000000000
        0.0000000000         3.0059111118         0.0000000000
        0.0000000000         0.0000000000        39.7867240906
   Mg    O   Co   Pt
    2    2    2    4
Cartesian
     0.000000000         0.000000000         0.000000000
     1.502955018         1.502955018         2.172317059
     1.502955018         1.502955018         0.000000000
     0.000000000         0.000000000         2.103237072
     0.000000000         0.000000000         4.169284102
     1.502955018         1.502955018         5.258992208
     0.000000000         0.000000000         6.831103094
     1.502955018         1.502955018         8.673330747
     0.000000000         0.000000000        10.430370326
     1.502955018         1.502955018        12.145563476
