XCrySDen XSF file
1.0
        3.0059111118         0.0000000000         0.0000000000
        0.0000000000         3.0059111118         0.0000000000
        0.0000000000         0.0000000000        39.7867240906
   Mg    O   Co   Pt
    2    2    2    4
Direct
     0.000000000         0.000000000         0.000000000
     0.499999791         0.499999791         0.054599043
     0.499999791         0.499999791         0.000000000
     0.000000000         0.000000000         0.052862789
     0.000000000         0.000000000         0.104790829
     0.499999791         0.499999791         0.132179573
     0.000000000         0.000000000         0.171693027
     0.499999791         0.499999791         0.217995584
     0.000000000         0.000000000         0.262157053
     0.499999791         0.499999791         0.305266738
