Li1 F1
1.0
   0.0000000000000003    2.0417135738397736    2.0417135738397736
   2.0417135738397736    0.0000000000000000    2.0417135738397736
   2.0417135738397740    2.0417135738397736    0.0000000000000003
Li F
1 1
direct
   0.0000000000000000    0.0000000000000000    0.0000000000000000 Li
   0.5000000000000000    0.5000000000000000    0.4999999999999997 F
