Zn2 Ge2 P4
1.0
  -2.7212385976340747    2.7212385976340752    5.3647668950840197
   2.7212385976340747   -2.7212385976340752    5.3647668950840197
   2.7212385976340756    2.7212385976340752   -5.3647668950840197
Zn Ge P
2 2 4
direct
   0.7500000000000000    0.2500000000000000    0.4999999999999999 Zn
   0.0000000000000000    0.0000000000000000    0.0000000000000000 Zn
   0.2500000000000000    0.7500000000000000    0.5000000000000000 Ge
   0.5000000000000000    0.5000000000000000    0.0000000000000000 Ge
   0.1295625000000000    0.6250000000000000    0.0045625000000000 P
   0.8750000000000000    0.8704375000000002    0.4954375000000000 P
   0.3750000000000000    0.3795625000000000    0.5045625000000000 P
   0.6204375000000001    0.1250000000000000    0.9954375000000000 P
