Na4 Bi2 Au2
1.0
   3.7965634899999992   -4.7229198700000001   -0.0000000000000001
   3.7965634900000009    4.7229198700000001    0.0000000000000005
   0.0000000000000000    0.0000000000000000    6.0017837499999995
Na Bi Au
4 2 2
direct
   0.1434951400000002    0.4992022000000000    0.2500000000000000 Na
   0.5007978000000000    0.8565048599999998    0.7500000000000000 Na
   0.8565048599999998    0.5007978000000000    0.7500000000000000 Na
   0.4992022000000000    0.1434951400000002    0.2500000000000000 Na
   0.6930067499999999    0.6930067499999999    0.2500000000000001 Bi
   0.3069932500000001    0.3069932500000001    0.7500000000000000 Bi
   0.0000000000000000    0.0000000000000000    0.5000000000000000 Au
   0.0000000000000000    0.0000000000000000    0.0000000000000000 Au
