Zr2 Br2 N2
1.0
  10.2054675130405705   -1.8270610018567013    0.0000000000000000
  10.2054675130405705    1.8270610018567013    0.0000000000000000
   9.8783730511513799    0.0000000000000000    3.1476125756703706
Zr Br N
2 2 2
direct
   0.8759705700000000    0.8759705700000001    0.8759705700000000 Zr
   0.1240294299999999    0.1240294299999999    0.1240294299999999 Zr
   0.6076298600000001    0.6076298600000002    0.6076298600000001 Br
   0.3923701400000002    0.3923701400000001    0.3923701399999997 Br
   0.8049464500000000    0.8049464500000001    0.8049464499999999 N
   0.1950535500000000    0.1950535500000000    0.1950535500000000 N
