Na1 Tl1 O2
1.0
   5.5415771568810266   -1.6842787411457132    0.0000000000000000
   5.5415771568810266    1.6842787411457132    0.0000000000000000
   5.0296660533149762    0.0000000000000000    2.8719908871150595
Na Tl O
1 1 2
direct
   0.5000000000000001    0.5000000000000000    0.5000000000000000 Na
   0.0000000000000000    0.0000000000000000    0.0000000000000000 Tl
   0.7424553500000004    0.7424553500000004    0.7424553500000004 O
   0.2575446499999997    0.2575446499999997    0.2575446499999997 O
