Si4 Ru4
1.0
   4.7085953799999993    0.0000000000000000    0.0000000000000003
   0.0000000000000008    4.7085953799999993    0.0000000000000003
   0.0000000000000000    0.0000000000000000    4.7085953799999993
Si Ru
4 4
direct
   0.1624222700000000    0.3375777300000000    0.6624222700000000 Si
   0.3375777300000000    0.6624222700000000    0.1624222700000000 Si
   0.6624222700000000    0.1624222700000000    0.3375777300000000 Si
   0.8375777300000000    0.8375777300000000    0.8375777300000000 Si
   0.8705944900000000    0.6294055100000000    0.3705944900000000 Ru
   0.6294055100000000    0.3705944900000000    0.8705944900000000 Ru
   0.3705944900000000    0.8705944900000000    0.6294055100000000 Ru
   0.1294055100000000    0.1294055100000000    0.1294055100000000 Ru
