K2 Pt1 Cl4
1.0
   7.0146346800000003    0.0000000000000000    0.0000000000000004
   0.0000000000000011    7.0146346800000003    0.0000000000000004
   0.0000000000000000    0.0000000000000000    4.1465611500000001
K Pt Cl
2 1 4
direct
   0.5000000000000000    0.0000000000000000    0.5000000000000000 K
   0.0000000000000000    0.5000000000000000    0.5000000000000000 K
   0.0000000000000000    0.0000000000000000    0.0000000000000000 Pt
   0.7665392300000000    0.2334607700000000    0.0000000000000000 Cl
   0.2334607700000000    0.2334607700000000    0.0000000000000000 Cl
   0.7665392300000000    0.7665392300000000    0.0000000000000000 Cl
   0.2334607700000000    0.7665392300000000    0.0000000000000000 Cl
