N4
1.0
   2.0836164053058974   -3.6089294774738407    0.0000000000000000
   2.0836164053058974    3.6089294774738407    0.0000000000000000
   0.0000000000000000    0.0000000000000000    7.0060035100000002
N
4
direct
   0.3333333333333333    0.6666666666666666    0.3289300400000000 N
   0.3333333333333333    0.6666666666666667    0.1710699600000000 N
   0.6666666666666667    0.3333333333333333    0.8289300400000000 N
   0.6666666666666667    0.3333333333333334    0.6710699600000000 N
