K3 Sb1 S4
1.0
  -3.8779684722625016    3.8779684722625021    3.8779684722625021
   3.8779684722625016   -3.8779684722625021    3.8779684722625021
   3.8779684722625025    3.8779684722625021   -3.8779684722625016
K Sb S
3 1 4
direct
   0.5000000000000000    1.0000000000000000    0.4999999999999999 K
   1.0000000000000000    0.5000000000000000    0.5000000000000000 K
   0.5000000000000000    0.5000000000000000    0.0000000000000000 K
   0.0000000000000000    0.0000000000000000    0.0000000000000000 Sb
   0.6487591799999999    0.6487591800000001    0.6487591799999999 S
   0.0000000000000000    0.3512408200000001    0.0000000000000000 S
   0.3512408200000001    0.0000000000000000    0.0000000000000000 S
   0.0000000000000000    0.0000000000000000    0.3512408200000001 S
