Zn2 Si2 P4
1.0
  -2.6867032364460468    2.6867032364460472    5.2300306317915988
   2.6867032364460468   -2.6867032364460472    5.2300306317915988
   2.6867032364460477    2.6867032364460472   -5.2300306317915988
Zn Si P
2 2 4
direct
   0.0000000000000000    0.0000000000000000    0.0000000000000000 Zn
   0.7500000000000000    0.2500000000000000    0.5000000000000000 Zn
   0.5000000000000000    0.5000000000000000    0.0000000000000000 Si
   0.2500000000000000    0.7500000000000000    0.4999999999999999 Si
   0.3750000000000000    0.3923011999999990    0.5173011999999990 P
   0.8750000000000001    0.8576988000000009    0.4826988000000010 P
   0.6076988000000010    0.1250000000000000    0.9826988000000010 P
   0.1423011999999990    0.6250000000000000    0.0173011999999990 P
