Hg1 O2
1.0
   2.4153449999999999    2.6282389999999993    0.0000000000000000
   2.4153449999999999   -2.6282389999999993    0.0000000000000000
   0.0000000000000000   -2.1660490000000006   -3.8123860000000001
Hg O
1 2
direct
   0.0000000000000000    0.0000000000000000    0.0000000000000000 Hg
   0.4632170000000002    0.5367830000000000    0.3142370000000002 O
   0.5367830000000000    0.4632170000000000    0.6857629999999998 O
