Ba2 Te6
1.0
   8.0766372000000004    0.0000000000000000    0.0000000000000005
   0.0000000000000013    8.0766372000000004    0.0000000000000005
   0.0000000000000000    0.0000000000000000    4.4862274900000001
Ba Te
2 6
direct
   0.5000000000000000    0.5000000000000000    0.0000000000000000 Ba
   0.0000000000000000    0.0000000000000000    0.0000000000000000 Ba
   0.8005640100000000    0.6994359900000000    0.4925396500000000 Te
   0.3005640100000000    0.8005640100000000    0.5074603500000000 Te
   0.0000000000000000    0.5000000000000000    0.1281406200000000 Te
   0.5000000000000000    0.0000000000000000    0.8718593800000000 Te
   0.1994359900000000    0.3005640100000000    0.4925396500000000 Te
   0.6994359900000000    0.1994359900000000    0.5074603500000000 Te
