K4 Cd2 Sn2
1.0
   4.3255419999999987   -5.5112159999999992   -0.0000000000000001
   4.3255420000000004    5.5112159999999992    0.0000000000000006
   0.0000000000000000    0.0000000000000000    6.5713640000000000
K Cd Sn
4 2 2
direct
   0.6810169999999998    0.0189329999999996    0.2500000000000000 K
   0.9810670000000002    0.3189830000000002    0.7500000000000000 K
   0.0398109999999998    0.6826569999999998    0.2500000000000000 K
   0.3173430000000002    0.9601890000000002    0.7500000000000000 K
   0.5079920000000000    0.4920080000000000    0.4999999999999999 Cd
   0.5079920000000000    0.4920080000000000    0.0000000000000000 Cd
   0.2364349999999987    0.2316569999999998    0.2500000000000000 Sn
   0.7683430000000003    0.7635650000000012    0.7500000000000000 Sn
