Li1 H1 F2
1.0
   4.4480689475210600   -1.4669835873927413    0.0000000000000000
   4.4480689475210600    1.4669835873927413    0.0000000000000000
   3.9642543144589926    0.0000000000000000    2.4944029221186472
Li H F
1 1 2
direct
   0.0000000000000000    0.0000000000000000    0.0000000000000000 Li
   0.5000000000000000    0.5000000000000000    0.5000000000000002 H
   0.4133018799999998    0.4133018799999999    0.4133018799999998 F
   0.5866981200000003    0.5866981200000003    0.5866981200000001 F
