Mg1 Al2 Se4
1.0
  13.7703759988402350   -1.9611249473993571    0.0000000000000000
  13.7703759988402350    1.9611249473993571    0.0000000000000000
  13.4910799898107037    0.0000000000000000    3.3852661516159390
Mg Al Se
1 2 4
direct
   0.0000000000000000    0.0000000000000000    0.0000000000000000 Mg
   0.2422910000000000    0.2422910000000000    0.2422910000000000 Al
   0.7577090000000000    0.7577090000000000    0.7577090000000001 Al
   0.7015899999999999    0.7015899999999999    0.7015899999999999 Se
   0.2984100000000001    0.2984100000000001    0.2984100000000001 Se
   0.1171190000000000    0.1171190000000000    0.1171190000000000 Se
   0.8828810000000000    0.8828810000000000    0.8828810000000000 Se
