K2 Te2 Pt1
1.0
  -1.9941251434979614    3.9654681794971944    5.1628273291234912
   1.9941251434979614   -3.9654681794971944    5.1628273291234912
   1.9941251434979628    3.9654681794971944   -5.1628273291234912
K Te Pt
2 2 1
direct
   0.2935308300000004    0.7935308300000001    0.5000000000000001 K
   0.7064691700000003    0.2064691700000003    0.5000000000000000 K
   0.7784468199999999    0.5000000000000002    0.2784468199999997 Te
   0.2215531800000005    0.5000000000000001    0.7215531800000003 Te
   0.0000000000000000    0.0000000000000000    0.0000000000000000 Pt
