Sn1 Hg2 Se4
1.0
  -2.9394873745716095    2.9394873745716099    5.8935700457205806
   2.9394873745716095   -2.9394873745716099    5.8935700457205806
   2.9394873745716104    2.9394873745716099   -5.8935700457205806
Sn Hg Se
1 2 4
direct
   0.2500000000000002    0.7500000000000000    0.4999999999999999 Sn
   0.5000000000000001    0.5000000000000001    0.0000000000000000 Hg
   0.7500000000000000    0.2500000000000001    0.5000000000000000 Hg
   0.1156914800000002    0.0946582700000000    0.4408288499999999 Se
   0.3251373700000001    0.8843085200000000    0.9789667899999994 Se
   0.9053417300000004    0.3461705800000007    0.0210332100000006 Se
   0.6538294199999998    0.6748626300000001    0.5591711500000001 Se
