Hf2 Se6
1.0
   0.0000000000000000    5.4536453374440947    0.0000000000000000
   3.7348942400000000    0.0000000000000000    0.0000000000000000
   0.0000000000000000   -1.2508256338693533   -9.5544424259579923
Hf Se
2 6
direct
   0.7151979800000000    0.2500000000000000    0.3468904800000001 Hf
   0.2848020200000000    0.7500000000000000    0.6531095199999999 Hf
   0.1085537599999999    0.2500000000000000    0.8223361499999999 Se
   0.8914462400000001    0.7500000000000000    0.1776638500000001 Se
   0.7622478800000000    0.7500000000000000    0.5520354699999999 Se
   0.2377521200000000    0.2500000000000000    0.4479645300000001 Se
   0.4600148800000000    0.7500000000000000    0.1788771600000000 Se
   0.5399851200000000    0.2500000000000000    0.8211228400000000 Se
