Ca2 N1 Cl1
1.0
   6.6596856575867349   -1.8289165089680026    0.0000000000000000
   6.6596856575867349    1.8289165089680026    0.0000000000000000
   6.1574193692424588    0.0000000000000000    3.1277044882661107
Ca N Cl
2 1 1
direct
   0.7711264200000001    0.7711264200000001    0.7711264200000000 Ca
   0.2288735800000000    0.2288735800000000    0.2288735800000000 Ca
   0.5000000000000001    0.4999999999999999    0.5000000000000001 N
   0.0000000000000000    0.0000000000000000    0.0000000000000000 Cl
