Cs2 Cl2 O4
1.0
   3.3841849999999996   -3.4221460000000001   -0.0000000000000000
   3.3841850000000004    3.4221460000000001    0.0000000000000004
   0.0000000000000000    0.0000000000000000    8.5735949999999992
Cs Cl O
2 2 4
direct
   0.5000000000000000    0.5000000000000000    0.5000000000000000 Cs
   0.5000000000000000    0.5000000000000000    0.0000000000000000 Cs
   0.9758239999999995    0.0241760000000002    0.2500000000000000 Cl
   0.0241760000000004    0.9758239999999995    0.7500000000000000 Cl
   0.6512389999999998    0.9650080000000009    0.2500000000000000 O
   0.0349919999999990    0.3487610000000001    0.2500000000000000 O
   0.9650080000000010    0.6512389999999999    0.7500000000000000 O
   0.3487610000000001    0.0349919999999990    0.7500000000000000 O
