Cs2 Cu2 O4
1.0
   2.6671513587113158   -6.0647782706585165   -0.0000000000000002
   2.6671513587113176    6.0647782706585165    0.0000000000000005
   0.0000000000000000    0.0000000000000000    5.4251271699999997
Cs Cu O
2 2 4
direct
   0.3162532000000002    0.6837467999999997    0.7500000000000000 Cs
   0.6837467999999998    0.3162532000000002    0.2500000000000000 Cs
   0.0018620050000001    0.9981379949999999    0.7500000000000000 Cu
   0.9981379949999999    0.0018620050000000    0.2499999999999999 Cu
   0.1004249600000001    0.8995750399999999    0.0033992699999997 O
   0.8995750400000000    0.1004249600000002    0.9966007300000003 O
   0.8995750400000000    0.1004249600000002    0.5033992699999997 O
   0.1004249600000001    0.8995750399999999    0.4966007300000003 O
