Sc1 Cu1 O2
1.0
   5.7651569052646598   -1.6116049389153047    0.0000000000000000
   5.7651569052646598    1.6116049389153047    0.0000000000000000
   5.3146452328478331    0.0000000000000000    2.7547868647909586
Sc Cu O
1 1 2
direct
   0.5000000000000000    0.5000000000000000    0.5000000000000002 Sc
   0.0000000000000000    0.0000000000000000    0.0000000000000000 Cu
   0.8931700000000000    0.8931700000000000    0.8931699999999999 O
   0.1068300000000000    0.1068300000000000    0.1068300000000000 O
