K2 Cu2 O4
1.0
   2.1941195659554311   -5.8105733255598881   -0.0000000000000002
   2.1941195659554329    5.8105733255598881    0.0000000000000005
   0.0000000000000000    0.0000000000000000    5.4070919799999997
K Cu O
2 2 4
direct
   0.6988245100000001    0.3011754899999999    0.2500000000000000 K
   0.3011754900000000    0.6988245100000001    0.7500000000000000 K
   0.0021888850000003    0.9978111149999999    0.7500000000000000 Cu
   0.9978111150000000    0.0021888850000000    0.2500000000000000 Cu
   0.1051173650000000    0.8948826350000000    0.4958717800000000 O
   0.8948826350000002    0.1051173649999999    0.5041282199999999 O
   0.1051173650000000    0.8948826350000000    0.0041282200000000 O
   0.8948826350000002    0.1051173649999999    0.9958717800000000 O
