C4 O4
1.0
   4.1711479999999996    0.0000000000000000    0.0000000000000003
   0.0000000000000010    6.2988289999999996    0.0000000000000004
   0.0000000000000000    0.0000000000000000    7.9488459999999987
C O
4 4
direct
   0.5479370000000000    0.4962930000000000    0.6023320000000005 C
   0.0479370000000001    0.0037070000000000    0.3976679999999995 C
   0.4520630000000000    0.9962930000000000    0.8976679999999995 C
   0.9520630000000000    0.5037070000000000    0.1023320000000005 C
   0.9392500000000000    0.9682700000000001    0.5267160000000004 O
   0.4392499999999999    0.5317299999999999    0.4732839999999996 O
   0.0607500000000000    0.4682700000000000    0.9732839999999996 O
   0.5607500000000000    0.0317299999999999    0.0267160000000004 O
