Sn2 S2
1.0
   1.8747067583740882   -5.9452829695064286   -0.0000000000000002
   1.8747067583740900    5.9452829695064286    0.0000000000000005
   0.0000000000000000    0.0000000000000000    5.7075409700000002
Sn S
2 2
direct
   0.1527993800000002    0.8472006200000001    0.7500000000000000 Sn
   0.8472006200000001    0.1527993800000000    0.2500000000000000 Sn
   0.8021079250000002    0.1978920749999999    0.7500000000000000 S
   0.1978920750000002    0.8021079250000001    0.2500000000000000 S
