Nb2 I4 O2
1.0
   1.9689730244707184    7.9295531480077450    0.0000000000000000
   1.9689730244707184   -7.9295531480077450    0.0000000000000000
   0.0000000000000000   -1.9888269640847061   -7.3186681125118795
Nb I O
2 4 2
direct
   0.9703444400000001    0.9698929500000001    0.7925118599999998 Nb
   0.9698929500000001    0.9703444400000001    0.2074881400000002 Nb
   0.8482759599999998    0.1489630500000001    0.9163374899999999 I
   0.8798469900000003    0.1269420100000000    0.4327638499999990 I
   0.1269420100000000    0.8798469900000003    0.5672361500000010 I
   0.1489630500000001    0.8482759599999998    0.0836625100000001 I
   0.4973632600000001    0.4968292800000002    0.7877555299999998 O
   0.4968292800000000    0.4973632600000002    0.2122444700000001 O
