Co2 Ag2 O4
1.0
   1.4307604305234261   -2.4781497591256945    0.0000000000000000
   1.4307604305234261    2.4781497591256945    0.0000000000000000
   0.0000000000000000    0.0000000000000000   12.2856915099999995
Co Ag O
2 2 4
direct
   0.0000000000000000    0.0000000000000000    0.0000000000000000 Co
   0.0000000000000000    0.0000000000000000    0.5000000000000000 Co
   0.6666666666666666    0.3333333333333333    0.7500000000000000 Ag
   0.3333333333333334    0.6666666666666667    0.2500000000000000 Ag
   0.6666666666666666    0.3333333333333333    0.5780463900000001 O
   0.3333333333333334    0.6666666666666667    0.4219536099999999 O
   0.6666666666666667    0.3333333333333334    0.9219536099999999 O
   0.3333333333333333    0.6666666666666666    0.0780463900000001 O
