Cu2 C2 S2 N2
1.0
   1.9199971397808722   -3.3255325964873941    0.0000000000000000
   1.9199971397808722    3.3255325964873941    0.0000000000000000
   0.0000000000000000    0.0000000000000000   10.9531720000000004
Cu C S N
2 2 2 2
direct
   0.3333333333333333    0.6666666666666666    0.0002690000000000 Cu
   0.6666666666666667    0.3333333333333333    0.5002690000000000 Cu
   0.6666666666666666    0.3333333333333333    0.7804879999999990 C
   0.3333333333333333    0.6666666666666666    0.2804879999999990 C
   0.3333333333333333    0.6666666666666666    0.4323049999999991 S
   0.6666666666666667    0.3333333333333333    0.9323049999999991 S
   0.3333333333333333    0.6666666666666666    0.1731380000000000 N
   0.6666666666666667    0.3333333333333333    0.6731380000000000 N
