Li1 Mg1 Bi1
1.0
   0.0000000000000005    3.3903992190508609    3.3903992190508609
   3.3903992190508609    0.0000000000000000    3.3903992190508609
   3.3903992190508614    3.3903992190508609    0.0000000000000004
Li Mg Bi
1 1 1
direct
   0.0000000000000000    0.0000000000000000    0.0000000000000000 Li
   0.4999999999999999    0.5000000000000000    0.4999999999999999 Mg
   0.2500000000000000    0.2500000000000001    0.2499999999999999 Bi
