Sn2 Se2
1.0
   4.2853274191404740    0.0000000000000000    0.0000000000000003
   0.0000000000000007    4.2853274191404740    0.0000000000000003
   0.0000000000000000    0.0000000000000000   10.9906921299999993
Sn Se
2 2
direct
   0.5000000000000000    0.0000000000000000    0.3722291099999999 Sn
   0.0000000000000000    0.5000000000000000    0.6277708900000001 Sn
   0.5000000000000000    0.0000000000000000    0.6160394900000000 Se
   0.0000000000000000    0.5000000000000000    0.3839605100000000 Se
