Tl2 In2 S4
1.0
  -3.9482753999999995    3.9482754000000000    3.3513096899999999
   3.9482753999999995   -3.9482754000000000    3.3513096899999999
   3.9482754000000004    3.9482754000000000   -3.3513096899999995
Tl In S
2 2 4
direct
   0.7499999999999999    0.7499999999999999    0.0000000000000000 Tl
   0.2500000000000000    0.2500000000000000    0.0000000000000000 Tl
   0.7499999999999999    0.2500000000000000    0.4999999999999999 In
   0.2499999999999998    0.7499999999999998    0.5000000000000000 In
   0.1659126200000001    0.6659126200000002    0.8318252400000000 S
   0.8340873799999999    0.3340873799999999    0.1681747599999999 S
   0.6659126200000001    0.8340873799999999    0.5000000000000000 S
   0.3340873799999999    0.1659126200000001    0.5000000000000000 S
