C4
1.0
   7.2085714980856954   -1.2281339834573219    0.0000000000000000
   7.2085714980856954    1.2281339834573219    0.0000000000000000
   6.9993326659920836    0.0000000000000000    2.1168746668408001
C
4
direct
   0.9186004094339993    0.9186004094339995    0.9186004094339993 C
   0.2519415342640343    0.2519415342640343    0.2519415342640343 C
   0.7480584657359657    0.7480584657359658    0.7480584657359657 C
   0.0813995905660007    0.0813995905660007    0.0813995905660007 C
