C2 O4
1.0
  -1.9747269999999999    1.9747270000000001    3.0140579999999999
   1.9747269999999999   -1.9747270000000001    3.0140579999999999
   1.9747270000000003    1.9747270000000001   -3.0140579999999995
C O
2 4
direct
   0.7500000000000000    0.2500000000000001    0.4999999999999999 C
   0.0000000000000000    0.0000000000000000    0.0000000000000000 C
   0.7097979999999990    0.1250000000000000    0.0847979999999993 O
   0.0402020000000007    0.6250000000000000    0.9152020000000010 O
   0.3750000000000000    0.2902020000000010    0.4152020000000010 O
   0.8750000000000000    0.9597979999999990    0.5847979999999993 O
