Rb1 Pb1 F3
1.0
   4.8617159999999995    0.0000000000000000    0.0000000000000003
   0.0000000000000008    4.8617159999999995    0.0000000000000003
   0.0000000000000000    0.0000000000000000    4.8617159999999995
Rb Pb F
1 1 3
direct
   0.0000000000000000    0.0000000000000000    0.0000000000000000 Rb
   0.5000000000000000    0.5000000000000000    0.5000000000000000 Pb
   0.0000000000000000    0.5000000000000000    0.5000000000000000 F
   0.5000000000000000    0.0000000000000000    0.5000000000000000 F
   0.5000000000000000    0.5000000000000000    0.0000000000000000 F
