Ir2 Cl6
1.0
   5.2676135322594995    3.0403419029900181    0.0000000000000000
   5.2676135322594995   -3.0403419029900181    0.0000000000000000
   0.0000000000000000   -1.9287371686913004   -5.8046582227837762
Ir Cl
2 6
direct
   0.1666300699999999    0.1666300699999999    0.0000000000000000 Ir
   0.8333699300000001    0.8333699300000001    0.0000000000000000 Ir
   0.4293269100000001    0.9225438699999998    0.7767132700000000 Cl
   0.9225438699999999    0.4293269100000001    0.2232867300000000 Cl
   0.2189359399999999    0.7810640600000001    0.2238723000000001 Cl
   0.7810640600000001    0.2189359399999999    0.7761277000000000 Cl
   0.0774561300000001    0.5706730899999998    0.7767132700000000 Cl
   0.5706730899999997    0.0774561300000001    0.2232867300000000 Cl
