Rb1 Br1 O3
1.0
   3.2223834325950822   -3.0935747687651065    0.0000000000000000
   3.2223834325950822    3.0935747687651065    0.0000000000000000
   0.2524684457144217    0.0000000000000000    4.4598452350414455
Rb Br O
1 1 3
direct
   0.0018295100000001    0.0018295100000003    0.0018295100000001 Rb
   0.4734256700000000    0.4734256700000001    0.4734256699999999 Br
   0.5287663800000001    0.1031730600000000    0.5287663800000000 O
   0.5287663800000001    0.5287663800000001    0.1031730599999999 O
   0.1031730600000000    0.5287663800000001    0.5287663800000000 O
