K1 Zn1 Sb1
1.0
   2.2583447441751767   -3.9115678379175440    0.0000000000000000
   2.2583447441751767    3.9115678379175440    0.0000000000000000
   0.0000000000000000    0.0000000000000000    5.3621130800000003
K Zn Sb
1 1 1
direct
   0.0000000000000000    0.0000000000000000    0.0000000000000000 K
   0.3333333333333333    0.6666666666666666    0.5000000000000000 Zn
   0.6666666666666666    0.3333333333333333    0.5000000000000000 Sb
