Al1 Sb1
1.0
   3.7875495300000002   -0.0000000000000000    2.1867419400000001
   1.2625168400000000    3.5709352700000001    2.1867419400000001
  -0.0000000000000000   -0.0000000000000000    4.3734858900000004
Al Sb
1 1
direct
  -0.0000000000000000    0.0000000000000000    0.0000000000000000 Al
   0.2500000000000000    0.2500000000000000    0.2500000000000000 Sb
