Al1 N1
1.0
   0.0000000000000000    2.0345179999999998    2.0345179999999998
   2.0345179999999998    0.0000000000000000    2.0345179999999998
   2.0345179999999998    2.0345179999999998    0.0000000000000000
Al N
1 1
direct
   0.5000000000000000    0.5000000000000000    0.5000000000000000 Al
   0.0000000000000000    0.0000000000000000    0.0000000000000000 N
