Ga1 As1
1.0
   3.5212530000000002    0.0000000000000000    2.0329969999999999
   1.1737510000000000    3.3198690000000002    2.0329969999999999
   0.0000000000000000    0.0000000000000000    4.0659929999999997
Ga As
1 1
direct
   0.0000000000000000    0.0000000000000000    0.0000000000000000 Ga
   0.2500000000000000    0.2500000000000000    0.2500000000000000 As
