Al1 P1
1.0
   3.3514945799999998   -0.0000000000000000    1.9349857699999999
   1.1171648599999999    3.1598189099999998    1.9349857699999999
  -0.0000000000000000   -0.0000000000000000    3.8699725400000000
Al P
1 1
direct
   0.0000000000000000   -0.0000000000000000    0.0000000000000000 Al
   0.2500000000000000    0.2500000000000000    0.2500000000000000 P
