Ga1 N1
1.0
   0.0000000000000000    2.1352350000000002    2.1352350000000002
   2.1352350000000002    0.0000000000000000    2.1352350000000002
   2.1352350000000002    2.1352350000000002    0.0000000000000000
Ga N
1 1
direct
   0.0000000000000000    0.0000000000000000    0.0000000000000000 Ga
   0.5000000000000000    0.5000000000000000    0.5000000000000000 N
