S6
1.0
   0.0000000000000001   -6.2629522897686218   -1.4993745217866685
  -5.4238757856295461    3.1314761448843109   -1.4993745217866685
   5.4238757856295461    3.1314761448843114   -1.4993745217866685
S
6
direct
   0.1407700199999998    0.2449228299999998    0.9093393899999999 S
   0.2449228299999998    0.9093393900000000    0.1407700199999998 S
   0.9093393899999997    0.1407700199999997    0.2449228299999997 S
   0.8592299800000003    0.7550771700000001    0.0906606100000001 S
   0.7550771700000001    0.0906606100000003    0.8592299800000003 S
   0.0906606100000003    0.8592299800000003    0.7550771700000003 S
