B1 P1 S4
1.0
  -2.6291195919429020    2.9079435120009536    4.6292751936480911
   2.6291195919429020   -2.9079435120009536    4.6292751936480911
   2.6291195919429029    2.9079435120009536   -4.6292751936480911
B P S
1 1 4
direct
   0.0000000000000000    0.5000000000000000    0.5000000000000001 B
   0.0000000000000000    0.0000000000000000    0.0000000000000000 P
   0.7031168999999992    0.6236933800000001    0.5493975799999991 S
   0.2968831000000008    0.8462806800000001    0.9205764800000011 S
   0.9257041999999991    0.3763066199999999    0.0794235199999989 S
   0.0742958000000011    0.1537193200000002    0.4506024200000009 S
