K2 Au2 S2
1.0
   3.1568217561321221   -3.9360856333357268   -0.0000000000000000
   3.1568217561321230    3.9360856333357268    0.0000000000000004
   0.0000000000000000    0.0000000000000000    6.6852624999999994
K Au S
2 2 2
direct
   0.6269190400000000    0.3730809600000000    0.7500000000000000 K
   0.3730809599999999    0.6269190400000000    0.2500000000000000 K
   0.0000000000000000    0.0000000000000000    0.5000000000000000 Au
   0.0000000000000000    0.0000000000000000    0.0000000000000000 Au
   0.2038768600000000    0.7961231400000001    0.7499999999999999 S
   0.7961231400000000    0.2038768600000000    0.2500000000000000 S
