Ga1 As1
1.0
   0.0000000000000005    2.8750910496250071    2.8750910496250071
   2.8750910496250071    0.0000000000000000    2.8750910496250071
   2.8750910496250075    2.8750910496250071    0.0000000000000004
Ga As
1 1
direct
   0.0000000000000000    0.0000000000000000    0.0000000000000000 Ga
   0.2500000000000000    0.2500000000000001    0.2499999999999999 As
