Cs1 Au3 Se2
1.0
   3.2181400961986841   -5.5739821524907152    0.0000000000000000
   3.2181400961986841    5.5739821524907152    0.0000000000000000
   0.0000000000000000    0.0000000000000000    5.2746158200000002
Cs Au Se
1 3 2
direct
   0.0000000000000000    0.0000000000000000    0.5000000000000000 Cs
   0.0000000000000000    0.5000000000000000    0.0000000000000000 Au
   0.5000000000000000    0.0000000000000000    0.0000000000000000 Au
   0.5000000000000000    0.5000000000000000    0.0000000000000000 Au
   0.3333333333333333    0.6666666666666666    0.6978568200000000 Se
   0.6666666666666667    0.3333333333333334    0.3021431800000000 Se
