Sb2 Te1 Se2
1.0
  -0.0000000000000000   -2.3864782290447328  -10.0951086554126164
  -2.0667507719312370    1.1932391145223664  -10.0951086554126164
   2.0667507719312370    1.1932391145223662  -10.0951086554126164
Sb Te Se
2 1 2
direct
   0.3898304800000001    0.3898304799999999    0.3898304799999999 Sb
   0.6018479200000002    0.6018479200000000    0.6018479199999999 Sb
   0.2101118799999999    0.2101118799999999    0.2101118799999999 Te
   0.9964511999999999    0.9964512000000000    0.9964511999999999 Se
   0.7726575199999999    0.7726575200000000    0.7726575199999999 Se
