Si2 H2
1.0
   1.9326440483774912   -3.3474376847354179    0.0000000000000000
   1.9326440483774912    3.3474376847354179    0.0000000000000000
   0.0000000000000000    0.0000000000000000    5.7322039199999999
Si H
2 2
direct
   0.6666666666666666    0.3333333333333333    0.9371918599999999 Si
   0.3333333333333334    0.6666666666666667    0.0628081400000001 Si
   0.6666666666666666    0.3333333333333333    0.6771273299999999 H
   0.3333333333333334    0.6666666666666667    0.3228726700000001 H
