Sn1 S2
1.0
   1.8371528002849880   -3.1820419913610376    0.0000000000000000
   1.8371528002849880    3.1820419913610376    0.0000000000000000
   0.0000000000000000    0.0000000000000000    6.2288318399999998
Sn S
1 2
direct
   0.0000000000000000    0.0000000000000000    0.0000000000000000 Sn
   0.3333333333333333    0.6666666666666666    0.2346534699999999 S
   0.6666666666666667    0.3333333333333334    0.7653465300000002 S
