K2 Ag2 Se2
1.0
   4.5164514599999999    0.0000000000000000    0.0000000000000003
   0.0000000000000007    4.5164514599999999    0.0000000000000003
   0.0000000000000000    0.0000000000000000    7.6982128999999997
K Ag Se
2 2 2
direct
   0.0000000000000000    0.5000000000000000    0.3371370200000000 K
   0.5000000000000000    0.0000000000000000    0.6628629800000000 K
   0.0000000000000000    0.0000000000000000    0.0000000000000000 Ag
   0.5000000000000000    0.5000000000000000    0.0000000000000000 Ag
   0.5000000000000000    0.0000000000000000    0.2170142300000000 Se
   0.0000000000000000    0.5000000000000000    0.7829857700000000 Se
