Tl1 I1 O3
1.0
   0.0000000000000001   -3.6382218889838462   -2.6554335852602180
  -3.1507925804646186    1.8191109444919231   -2.6554335852602180
   3.1507925804646186    1.8191109444919229   -2.6554335852602180
Tl I O
1 1 3
direct
   0.0087508499999998    0.0087508500000000    0.0087508499999999 Tl
   0.5018673299999999    0.5018673300000002    0.5018673300000001 I
   0.4618970900000001    0.9032876500000000    0.4618970900000002 O
   0.9032876500000000    0.4618970900000003    0.4618970900000001 O
   0.4618970900000001    0.4618970900000002    0.9032876500000000 O
