Cd1 Se1
1.0
   0.0000000000000005    3.0702711985587201    3.0702711985587201
   3.0702711985587201    0.0000000000000000    3.0702711985587201
   3.0702711985587205    3.0702711985587201    0.0000000000000004
Cd Se
1 1
direct
   0.0000000000000000    0.0000000000000000    0.0000000000000000 Cd
   0.7500000000000000    0.7500000000000000    0.7500000000000000 Se
