Ba2 Cu1 Br1 O2
1.0
   0.0000000000000000   -2.5083412160957961   -9.8672209312749466
  -2.1722872144985121    1.2541706080478980   -9.8672209312749466
   2.1722872144985121    1.2541706080478983   -9.8672209312749466
Ba Cu Br O
2 1 1 2
direct
   0.2515480000000003    0.2515480000000003    0.2515480000000003 Ba
   0.7484519999999997    0.7484519999999997    0.7484519999999997 Ba
   0.4999999999999998    0.4999999999999999    0.5000000000000002 Cu
   0.0000000000000000    0.0000000000000000    0.0000000000000000 Br
   0.5611790000000001    0.5611790000000003    0.5611790000000003 O
   0.4388209999999996    0.4388209999999996    0.4388209999999996 O
