Ca2 Br4
1.0
   4.3657719699999999    0.0000000000000000    0.0000000000000003
   0.0000000000000011    6.6549722999999998    0.0000000000000004
   0.0000000000000000    0.0000000000000000    6.9055278399999995
Ca Br
2 4
direct
   0.0000000000000000    0.0000000000000000    0.0000000000000000 Ca
   0.5000000000000000    0.5000000000000000    0.5000000000000000 Ca
   0.0000000000000000    0.2754495600000000    0.3274722600000000 Br
   0.0000000000000000    0.7245504400000000    0.6725277400000000 Br
   0.5000000000000000    0.7754495600000000    0.1725277400000000 Br
   0.5000000000000000    0.2245504400000000    0.8274722600000000 Br
