Generated by cif2cell 2.1.0. ? :  Ido H. et al.,  75, 7140-7142 (1994).
 1.0
  4.298084078982169  -2.481499999999999   0.000000000000000
  0.000000000000000   4.963000000000000   0.000000000000000
  0.000000000000000   0.000000000000000   3.973000000000000
  Co  Gd
   5   1
Cartesian
  2.149042039491085  -1.240750000000000   1.986500000000000 
  0.000000000000000   2.481500000000000   1.986500000000000 
  2.149042039491085   1.240750000000000   1.986500000000000 
  1.432694692994056   2.481500000000000   0.000000000000000 
  2.865389385988113   0.000000000000000   0.000000000000000 
  0.000000000000000   0.000000000000000   0.000000000000000 
