POSCAR_h2o_2
5.29177
1 0 0 
0 1 0 
0 0 1 
H H O H H O 
1 1 1 1 1 1 
Cartesian
0.0 -0.68944 -0.578509
0.0 0.68944 -0.578509
0.0 0.0 0.0
2.0 -0.68944 -0.578509
2.0 0.68944 -0.578509
2.0 0.0 0.0
