POSCAR_lagao
5.485
1 0 0 
0 1.41659070191 0 
0 0 1.00692798541 
Ga Ga Ga Ga La La La La O O O O O O O O O O O O 
1 1 1 1 1 1 1 1 1 1 1 1 1 1 1 1 1 1 1 1 
Cartesian
0.0 0.0 2.7615
2.7425 3.885 0.0
0.0 3.885 2.7615
2.7425 0.0 0.0
-0.0543015 1.9425 -0.0160167
2.6881985 1.9425 2.7775167
0.0543015 5.8275 0.0160167
2.7968015 5.8275 2.7454833
2.73153 1.9425 0.33138
5.47403 1.9425 2.43012
-2.73153 5.8275 -0.33138
0.01097 5.8275 3.09288
1.256065 0.28749 4.208526
3.998565 3.59751 -1.447026
-1.256065 4.17249 -4.208526
1.486435 -0.28749 6.970026
-1.256065 -0.28749 -4.208526
1.486435 4.17249 6.970026
1.256065 3.59751 4.208526
3.998565 0.28749 -1.447026
