POSCAR_srtio3
3.9
1 0 0 
0 1 0 
0 0 1 
Sr Ti O O O 
1 1 1 1 1 
Direct
0.5 0.5 0.5
0 0 0
0.5 0 0
0 0.5 0
0 0 0.5
