K1 I1
1.0
   4.3385801900000001    0.0000000000000000    2.5048793499999999
   1.4461940700000000    4.0904518000000003    2.5048793499999999
  -0.0000000100000000   -0.0000000100000000    5.0097607200000001
K I
1 1
direct
   0.0000000000000000   -0.0000000000000000   -0.0000000000000000 K
   0.5000000000000000    0.5000000000000000    0.5000000000000000 I
