Rb2 Hg1 F4
1.0
   4.3722184300000002   -0.0000000000000000   -1.3745585700000000
  -0.4321404500000000    4.3508116000000001   -1.3745585800000000
  -0.0103836000000000   -0.0114654600000000    7.6078639800000003
Rb Hg F
2 1 4
direct
   0.3591420600000000    0.3591420600000000    0.7182851200000000 Rb
   0.6408579400000000    0.6408579400000000    0.2817148800000000 Rb
  -0.0000000000000000   -0.0000000000000000   -0.0000000000000000 Hg
   0.1638410300000000    0.1638410300000000    0.3276830600000000 F
   0.8361589700000001    0.8361589700000001    0.6723169400000000 F
   0.5000000000000000   -0.0000000000000000   -0.0000000000000000 F
  -0.0000000000000000    0.5000000000000000   -0.0000000000000000 F
