Mg2 Se2
1.0
   4.2216002499999998   -0.0000819500000000   -0.0000000000000000
  -2.1108706499999998    3.6556651000000002    0.0000000000000000
   0.0000000000000000    0.0000010000000000    6.8167178300000000
Mg Se
2 2
direct
   0.6666805100000001    0.3333363000000000    0.4983122400000000 Mg
   0.3333194900000000    0.6666626999999991    0.9983122400000001 Mg
   0.6666816500000000    0.3333672300000000    0.8766877600000000 Se
   0.3333193500000000    0.6666337700000000    0.3766877600000000 Se
