K4 S2
1.0
   2.6513520000000002   -4.5922760000000000    0.0000000000000000
   2.6513520000000002    4.5922760000000000    0.0000000000000000
   0.0000000000000000    0.0000000000000000    7.2938830000000001
K S
4 2
direct
   0.3333330000000000    0.6666670000000000    0.2500000000000000 K
   0.0000000000000000    0.0000000000000000    0.5000000000000000 K
   0.0000000000000000    0.0000000000000000    0.0000000000000000 K
   0.6666670000000000    0.3333330000000000    0.7500000000000000 K
   0.6666670000000000    0.3333330000000000    0.2500000000000000 S
   0.3333330000000000    0.6666670000000000    0.7500000000000000 S
