K2 Sn1 Hg1 Se4
1.0
  -4.1188459999999996    4.1188459999999996    3.5692529999999998
   4.1188459999999996   -4.1188459999999996    3.5692529999999998
   4.1188459999999996    4.1188459999999996   -3.5692529999999998
K Sn Hg Se
2 1 1 4
direct
   0.5000000000000000    0.0000000000000000    0.5000000000000000 K
   0.0000000000000000    0.5000000000000000    0.5000000000000000 K
   0.5000000000000000    0.5000000000000000    0.0000000000000000 Sn
   0.0000000000000000    0.0000000000000000    0.0000000000000000 Hg
   0.9018200000000001    0.5593710000000000    0.0000000000000000 Se
   0.5593710000000000    0.9018200000000001    0.0000000000000000 Se
   0.0981800000000000    0.0981800000000000    0.6575520000000000 Se
   0.4406290000000000    0.4406290000000000    0.3424480000000000 Se
