Zn1 In2 S4
1.0
   0.3038980000000000    1.9630449999999999   -3.3864860000000001
   0.3038980000000000   -1.9630449999999999   -3.3864860000000001
 -12.3765049999999999    0.0000000000000000   -3.3864860000000001
Zn In S
1 2 4
direct
   0.6079709999999990    0.6079709999999990    0.1760870000000000 Zn
   0.8372759999999990    0.8372759999999990    0.4881720000000000 In
   0.0648219999999990    0.0648219999999990    0.8055340000000000 In
   0.9547490000000000    0.9547490000000000    0.1357529999999990 S
   0.7029900000000000    0.7029900000000000    0.8910300000000001 S
   0.5370360000000000    0.5370360000000000    0.3888919999999990 S
   0.1297559999999990    0.1297559999999990    0.6107319999999991 S
