Si1 F4
1.0
   4.3132123900000003   -0.0000000000000000   -1.5249498300000002
  -2.1566046999999999    3.7353504800000001   -1.5249498300000002
  -0.0000000000000000   -0.0000000000000000    4.5748514700000005
Si F
1 4
direct
   0.0000000000000000   -0.0000000000000000   -0.0000000000000000 Si
  -0.0000000000000000   -0.0000000000000000    0.6575005400000000 F
   0.3424994600000000    0.3424994600000000    0.3424994600000000 F
   0.6575005400000000   -0.0000000000000000   -0.0000000000000000 F
   0.0000000000000000    0.6575005400000000    0.0000000000000000 F
