Sr1 Si1 O3
1.0
   3.6989019999999999    0.0000000000000000    0.0000000000000000
   0.0000000000000000    3.6989019999999999    0.0000000000000000
   0.0000000000000000    0.0000000000000000    3.6989019999999999
Sr Si O
1 1 3
direct
   0.0000000000000000    0.0000000000000000    0.0000000000000000 Sr
   0.5000000000000000    0.5000000000000000    0.5000000000000000 Si
   0.0000000000000000    0.5000000000000000    0.5000000000000000 O
   0.5000000000000000    0.5000000000000000    0.0000000000000000 O
   0.5000000000000000    0.0000000000000000    0.5000000000000000 O
