Fe2 S4
1.0
   3.3776981699999999    0.0000000000000000    0.0000000000000000
   0.0000000000000000    4.4256248700000000   -0.0000000000000000
   0.0000000000000000    0.0000000000000000    5.3965282200000004
Fe S
2 4
direct
   0.5000000000000000    0.5000000000000000    0.5000000000000000 Fe
   0.0000000000000000    0.0000000000000000    0.0000000000000000 Fe
   0.5000000000000000    0.2995928100000000    0.8781846700000000 S
   0.5000000000000000    0.7004071900000001    0.1218153300000000 S
  -0.0000000000000000    0.2004071900000000    0.3781846700000000 S
  -0.0000000000000000    0.7995928100000000    0.6218153300000000 S
