Na1 Li2 Sb1
1.0
   4.1614670000000000    0.0000000000000000    2.4026239999999999
   1.3871560000000001    3.9234679999999988    2.4026239999999999
   0.0000000000000000    0.0000000000000000    4.8052479999999997
Na Li Sb
1 2 1
direct
   0.5000000000000000    0.5000000000000000    0.5000000000000000 Na
   0.2500000000000000    0.2500000000000000    0.2500000000000000 Li
   0.7500000000000000    0.7500000000000000    0.7500000000000000 Li
   0.0000000000000000    0.0000000000000000    0.0000000000000000 Sb
