Na4 Se4
1.0
   4.6485303199999999   -0.0000000000000000    0.0000000000000000
  -2.3242646599999999    4.0257445900000004    0.0000000000000000
  -0.0000000000000000    0.0000000000000000   10.7614493600000003
Na Se
4 4
direct
  -0.0000000000000000   -0.0000000000000000    0.0000000000000000 Na
  -0.0000000000000000   -0.0000000000000000    0.5000000000000000 Na
   0.3333330000000000    0.6666670000000000    0.2500000000000000 Na
   0.6666670000000000    0.3333330000000000    0.7500000000000000 Na
   0.3333330000000000    0.6666670000000000    0.6363622500000000 Se
   0.6666670000000000    0.3333330000000000    0.1363622500000000 Se
   0.6666670000000000    0.3333330000000000    0.3636377500000000 Se
   0.3333330000000000    0.6666670000000000    0.8636377500000000 Se
