Cu1 Cl1
1.0
  -2.5558980000000000   -2.5558980000000000    0.0000000000000000
  -2.5558980000000000    0.0000000000000000   -2.5558980000000000
   0.0000000000000000   -2.5558980000000000   -2.5558980000000000
Cu Cl
1 1
direct
   0.0000000000000000    0.0000000000000000    0.0000000000000000 Cu
   0.5000000000000000    0.5000000000000000    0.5000000000000000 Cl
