Na1 Y1 Se2
1.0
  -2.0618577100000000   -3.5712425799999998   -0.0000000000000000
  -4.1237144099999998   -0.0000000000000000   -0.0000000000000000
  -2.0618577100000000   -1.1904148700000001   -6.9221592200000002
Na Y Se
1 1 2
direct
  -0.0000000000000000    0.0000000000000000    0.0000000000000000 Na
   0.5000000000000000    0.5000000000000000    0.5000000000000000 Y
   0.7559613800000000    0.7559613800000000    0.7321188600000000 Se
   0.2440386200000000    0.2440386200000000    0.2678811400000000 Se
