Ba1 Se1
1.0
   4.0828357999999998   -0.0000000000000000    2.3572258700000002
   1.3609456000000000    3.8493350400000002    2.3572258700000002
  -0.0000000200000000   -0.0000000100000000    4.7144537900000003
Ba Se
1 1
direct
   0.0000000000000000    0.0000000000000000    0.0000000000000000 Ba
   0.5000000000000000    0.5000000000000000    0.5000000000000000 Se
