Sc1 Tl1 Se2
1.0
   3.8236628100000001   -0.0144013100000000    7.0573480100000001
   1.7777890200000002    3.3852730499999999    7.0573480000000002
  -0.0239292700000000   -0.0144013100000000    8.0265795099999995
Sc Tl Se
1 1 2
direct
  -0.0000000000000000   -0.0000000000000000    0.0000000000000000 Sc
   0.5000000000000000    0.5000000000000000    0.5000000000000000 Tl
   0.7315324600000001    0.7315324600000001    0.7315324600000001 Se
   0.2684675400000000    0.2684675400000000    0.2684675400000000 Se
