Ba1 Li1 H3
1.0
   4.0114221800000003    0.0000000000000000    0.0000000000000000
   0.0000000000000000    4.0114221800000003    0.0000000000000000
  -0.0000000000000000   -0.0000000000000000    4.0114221800000003
Ba Li H
1 1 3
direct
  -0.0000000000000000   -0.0000000000000000   -0.0000000000000000 Ba
   0.5000000000000000    0.5000000000000000    0.5000000000000000 Li
   0.5000000000000000   -0.0000000000000000    0.5000000000000000 H
   0.5000000000000000    0.5000000000000000   -0.0000000000000000 H
  -0.0000000000000000    0.5000000000000000    0.5000000000000000 H
