K2 Mg1 Cl4
1.0
   4.7175826000000001    0.0000000000000000   -1.4258605499999999
  -0.4309573800000000    4.6978572500000002   -1.4258605499999999
   0.0104027500000000    0.0114001500000000    8.5516129900000006
K Mg Cl
2 1 4
direct
   0.6419408100000000    0.6419408100000000    0.2838806100000000 K
   0.3580591900000000    0.3580591900000000    0.7161193900000000 K
  -0.0000000000000000   -0.0000000000000000   -0.0000000000000000 Mg
   0.8396681100000000    0.8396681100000000    0.6793382200000000 Cl
   0.1603318900000000    0.1603318900000000    0.3206617800000000 Cl
  -0.0000000000000000    0.5000000000000000   -0.0000000000000000 Cl
   0.5000000000000000   -0.0000000000000000   -0.0000000000000000 Cl
