K6 As2
1.0
   5.7894924200000002   -0.0000120600000000    0.0000000000000000
  -2.8947562599999999    5.0138412099999998    0.0000000000000000
   0.0000000000000000    0.0000000000000000   10.2426166799999994
K As
6 2
direct
   0.3333330000000000    0.6666670000000000    0.9192997500000000 K
   0.6666670000000000    0.3333330000000000    0.4192997500000000 K
   0.0000000000000000    0.0000000000000000    0.2500000000000000 K
  -0.0000000000000000   -0.0000000000000000    0.7500000000000000 K
   0.3333330000000000    0.6666670000000000    0.5807002500000000 K
   0.6666670000000000    0.3333330000000000    0.0807012500000000 K
   0.6666660000000000    0.3333339999999990    0.7500000000000000 As
   0.3333339999999990    0.6666660000000000    0.2500000000000000 As
