Be1 O1
1.0
   0.0000000000000000    1.8246220000000000    1.8246220000000000
   1.8246220000000000    0.0000000000000000    1.8246220000000000
   1.8246220000000000    1.8246220000000000    0.0000000000000000
Be O
1 1
direct
   0.0000000000000000    0.0000000000000000    0.0000000000000000 Be
   0.5000000000000000    0.5000000000000000    0.5000000000000000 O
