Cd2 S2
1.0
   4.1688381400000001    0.0000000000000000    0.0000000000000000
  -2.0844190700000000    3.6103196400000002    0.0000000000000000
   0.0000000000000000    0.0000000000000000    6.7796174100000002
Cd S
2 2
direct
   0.6666670000000000    0.3333330000000000    0.5002243700000000 Cd
   0.3333330000000000    0.6666670000000000    0.0002243700000000 Cd
   0.6666670000000000    0.3333330000000000    0.8767756300000000 S
   0.3333330000000000    0.6666670000000000    0.3767756300000000 S
