Pb2 Cl2 F2
1.0
   4.1091682900000004    0.0000000000000000   -0.0000000000000000
  -0.0000000000000000    4.1091682900000004   -0.0000000000000000
   0.0000000000000000   -0.0000000000000000    7.2390435599999998
Pb Cl F
2 2 2
direct
   0.7500000000000000    0.7500000000000000    0.7949050800000000 Pb
   0.2500000000000000    0.2500000000000000    0.2050949200000000 Pb
   0.2500000000000000    0.2500000000000000    0.6489144300000000 Cl
   0.7500000000000000    0.7500000000000000    0.3510855700000000 Cl
   0.2500000000000000    0.7500000000000000   -0.0000000000000000 F
   0.7500000000000000    0.2500000000000000   -0.0000000000000000 F
