Ga4 Ru2
1.0
   4.0946982299999997    2.3634402799999998   -0.0001432400000000
  -4.0946982299999997    2.3634402799999998   -0.0001432400000000
   0.0000000000000000   -2.3637128700000001    4.3449193199999998
Ga Ru
4 2
direct
   0.0808615999999990    0.9191383999999990    0.5000000000000000 Ga
   0.4190907700000000    0.5809092300000001    0.5000000000000000 Ga
   0.6691384000000000    0.3308616000000000   -0.0000000000000000 Ga
   0.3309082300000000    0.6690917700000000    0.0000000000000000 Ga
   0.7499957300000000    0.2500042700000000    0.5000000000000000 Ru
   0.0000042700000000    0.9999957300000000    0.0000000000000000 Ru
