Sr2 Cu2 S2 F2
1.0
   3.9394313699999999    0.0000000000000000    0.0000000000000000
   0.0000000000000000    3.9394313699999999    0.0000000000000000
   0.0000000000000000    0.0000000000000000    8.6470150199999996
Sr Cu S F
2 2 2 2
direct
   0.0000000000000000    0.5000000000000000    0.8301269400000000 Sr
   0.5000000000000000   -0.0000000000000000    0.1698730600000000 Sr
   0.5000000000000000    0.5000000000000000    0.5000000000000000 Cu
  -0.0000000000000000   -0.0000000000000000    0.5000000000000000 Cu
   0.5000000000000000    0.0000000000000000    0.6601819500000000 S
  -0.0000000000000000    0.5000000000000000    0.3398180500000000 S
   0.5000000000000000    0.5000000000000000    0.0000000000000000 F
  -0.0000000000000000    0.0000000000000000   -0.0000000000000000 F
