Rb2 Te2 Pt1
1.0
  -2.0107527400000000    4.1021410600000001    5.3761168200000000
   2.0107527400000000   -4.1021410600000001    5.3761168200000000
   2.0107527400000000    4.1021410600000001   -5.3761168200000000
Rb Te Pt
2 2 1
direct
   0.7015046400000000    0.2015046400000000    0.5000000000000000 Rb
   0.2984953600000000    0.7984953600000000    0.5000000000000000 Rb
   0.2123537500000000    0.5000000000000000    0.7123537500000000 Te
   0.7876462500000000    0.5000000000000000    0.2876462500000000 Te
  -0.0000000000000000   -0.0000000000000000   -0.0000000000000000 Pt
