Na2 Se1
1.0
   4.1393620000000002    0.0000000000000000    2.3898609999999998
   1.3797869999999990    3.9026290000000001    2.3898609999999998
   0.0000000000000000    0.0000000000000000    4.7797250000000000
Na Se
2 1
direct
   0.7500000000000000    0.7500000000000000    0.7500000000000000 Na
   0.2500000000000000    0.2500000000000000    0.2500000000000000 Na
   0.0000000000000000    0.0000000000000000    0.0000000000000000 Se
