K1 Na2 B1 N2
1.0
  -2.1334059999999999    2.1334059999999999    5.1800340000000000
   2.1334059999999999   -2.1334059999999999    5.1800340000000000
   2.1334059999999999    2.1334059999999999   -5.1800340000000000
K Na B N
1 2 1 2
direct
   0.5000000000000000    0.5000000000000000    0.0000000000000000 K
   0.2500000000000000    0.7500000000000000    0.5000000000000000 Na
   0.7500000000000000    0.2500000000000000    0.5000000000000000 Na
   0.0000000000000000    0.0000000000000000    0.0000000000000000 B
   0.8692439999999990    0.8692439999999990    0.0000000000000000 N
   0.1307559999999990    0.1307559999999990    0.0000000000000000 N
