Nb1 Sb1 Ru1
1.0
   3.7818165700000002   -0.0000000100000000    2.1834319999999998
   1.2606048500000000    3.5655302999999998    2.1834319999999998
  -0.0000000100000000   -0.0000000100000000    4.3668660299999997
Nb Sb Ru
1 1 1
direct
  -0.0000000000000000    0.0000000000000000    0.0000000000000000 Nb
   0.5000000000000000    0.5000000000000000    0.5000000000000000 Sb
   0.2500000000000000    0.2500000000000000    0.2500000000000000 Ru
