Y2 Cl2 O2
1.0
   3.8850438100000000   -0.0000000000000000    0.0000000000000000
  -0.0000000000000000    3.8850438100000000    0.0000000000000000
   0.0000000000000000    0.0000000000000000    6.6665048899999997
Y Cl O
2 2 2
direct
   0.7500000000000000    0.7500000000000000    0.1671352700000000 Y
   0.2500000000000000    0.2500000000000000    0.8328647300000001 Y
   0.7500000000000000    0.7500000000000000    0.6290421900000001 Cl
   0.2500000000000000    0.2500000000000000    0.3709588100000000 Cl
   0.2500000000000000    0.7500000000000000    0.0000000000000000 O
   0.7500000000000000    0.2500000000000000    0.0000000000000000 O
