Cd2 Si2 As4
1.0
   5.3411683300000004   -0.0000000000000000   -2.5404300600000003
  -1.2083104700000000    5.2026975699999998   -2.5404300600000003
   0.0084569100000000    0.0106452200000000    6.9028061100000002
Cd Si As
2 2 4
direct
   0.2500000000000000    0.7500000000000000    0.5000000000000000 Cd
   0.0000000000000000   -0.0000000000000000    0.0000000000000000 Cd
   0.7500000000000000    0.2500000000000000    0.5000000000000000 Si
   0.5000000000000000    0.5000000000000000    0.0000000000000000 Si
   0.1250000000000000    0.5842819700000000    0.7500000000000000 As
   0.8342819700000000    0.8750000000000000    0.2500000000000000 As
   0.4157170300000000    0.3750000000000000    0.2500000000000000 As
   0.6250000000000000    0.1657180300000000    0.7500000000000000 As
