Sr2 S4
1.0
   5.2011616099999998   -0.0081102300000000   -2.5552625600000001
  -3.1811459300000000    4.7951429100000000   -0.6844222200000000
  -0.0053802900000000    0.0081102400000000    5.7949483700000002
Sr S
2 4
direct
   0.0000000000000000    0.7500000000000000    0.7500000000000000 Sr
   0.0000000000000000    0.2500000000000000    0.2500000000000000 Sr
   0.2569236400000000    0.3784618200000000    0.8784618200000001 S
   0.5000000000000000    0.8784618200000001    0.6215381800000001 S
   0.7430763600000000    0.6215381800000001    0.1215381800000000 S
   0.5000000000000000    0.1215381800000000    0.3784618200000000 S
