K2 Pt1 Br4
1.0
   4.3652254800000003    0.0000000000000000    0.0000000000000000
  -0.0000000000000000    7.4055051399999998   -0.0000000000000000
   0.0000000000000000    0.0000000000000000    7.4055051399999998
K Pt Br
2 1 4
direct
   0.5000000000000000    0.0000000000000000    0.5000000000000000 K
   0.5000000000000000    0.5000000000000000    0.0000000000000000 K
  -0.0000000000000000    0.0000000000000000   -0.0000000000000000 Pt
   0.0000000000000000    0.7657301900000000    0.7657301900000000 Br
  -0.0000000000000000    0.2342698100000000    0.2342698100000000 Br
   0.0000000000000000    0.7657301900000000    0.2342698100000000 Br
  -0.0000000000000000    0.2342698100000000    0.7657301900000000 Br
