Ba1 S1 O4
1.0
   0.0000000000000000    3.6987800000000002    3.6987800000000002
   3.6987800000000002    0.0000000000000000    3.6987800000000002
   3.6987800000000002    3.6987800000000002    0.0000000000000000
Ba S O
1 1 4
direct
   0.5000000000000000    0.5000000000000000    0.5000000000000000 Ba
   0.0000000000000000    0.0000000000000000    0.0000000000000000 S
   0.8836120000000000    0.8836120000000000    0.3491640000000000 O
   0.8836120000000000    0.3491640000000000    0.8836120000000000 O
   0.8836120000000000    0.8836120000000000    0.8836120000000000 O
   0.3491640000000000    0.8836120000000000    0.8836120000000000 O
