K2 Au2 S2
1.0
   5.0456202499999998   -0.0031817200000000   -0.0000000000000000
  -1.0923480600000000    4.9259587199999997    0.0000000000000000
   0.0000000000000000    0.0000000000000000    6.6852625000000003
K Au S
2 2 2
direct
   0.6269185400000000    0.3730804600000000    0.2500000000000000 K
   0.3730804600000000    0.6269185400000000    0.7500000000000000 K
   0.0000000000000000   -0.0000000000000000    0.0000000000000000 Au
   0.0000000000000000   -0.0000000000000000    0.5000000000000000 Au
   0.2038768600000000    0.7961231400000001    0.2500000000000000 S
   0.7961231400000001    0.2038768600000000    0.7500000000000000 S
