K4 Cu2 As2
1.0
   5.8269999900000000   -0.0000000000000000    0.0000000000000000
   0.0000000000000000    6.0561540699999998   -1.7242254900000000
   0.0000000000000000    0.0043477900000000    6.2968189199999998
K Cu As
4 2 2
direct
   0.2500000000000000    0.0217670300000000    0.6841300200000000 K
   0.7500000000000000    0.9782329700000000    0.3158699800000000 K
   0.7500000000000000    0.3158699800000000    0.9782329700000000 K
   0.2500000000000000    0.6841300200000000    0.0217670300000000 K
   0.5000000000000000    0.5000000000000000    0.5000000000000000 Cu
  -0.0000000000000000    0.5000000000000000    0.5000000000000000 Cu
   0.2500000000000000    0.2607778900000000    0.2607778900000000 As
   0.7500000000000000    0.7392221100000000    0.7392221100000000 As
