C2 Br2 N2
1.0
   5.4778690000000001    0.0000000000000000    0.0000000000000000
   0.0000000000000000    5.4778690000000001    0.0000000000000000
   0.0000000000000000    0.0000000000000000    5.6566469999999995
C Br N
2 2 2
direct
   0.0000000000000000    0.5000000000000000    0.4245609999999990 C
   0.5000000000000000    0.0000000000000000    0.5754389999999990 C
   0.0000000000000000    0.5000000000000000    0.7429749999999991 Br
   0.5000000000000000    0.0000000000000000    0.2570250000000000 Br
   0.0000000000000000    0.5000000000000000    0.2182049999999990 N
   0.5000000000000000    0.0000000000000000    0.7817950000000000 N
