Ge4 Se4
1.0
   3.7871878600000000    0.0000000000000000    0.0000000000000000
   0.0000000000000000    4.6643635200000002    0.0000000000000000
   0.0000000000000000    0.0000000000000000   11.2560349399999993
Ge Se
4 4
direct
   0.2500000000000000    0.1190017300000000    0.1290986400000000 Ge
   0.7500000000000000    0.8809982700000000    0.8709013600000001 Ge
   0.7500000000000000    0.6190017300000000    0.3709013600000000 Ge
   0.2500000000000000    0.3809982700000000    0.6290986400000000 Ge
   0.2500000000000000    0.5154685600000000    0.8492791900000001 Se
   0.7500000000000000    0.4845314400000000    0.1507208100000000 Se
   0.7500000000000000    0.0154685600000000    0.6507208100000000 Se
   0.2500000000000000   -0.0154685600000000    0.3492801900000000 Se
