Ba1 Cu2 Se2
1.0
   4.0740359999999987    0.0000000000000000    0.0000000000000000
   0.0000000000000000    4.0740359999999987    0.0000000000000000
  -2.0370179999999989   -2.0370179999999989    6.5959310000000002
Ba Cu Se
1 2 2
direct
   0.0000000000000000    0.0000000000000000    0.0000000000000000 Ba
   0.2500000000000000    0.7500000000000000    0.5000000000000000 Cu
   0.7500000000000000    0.2500000000000000    0.5000000000000000 Cu
   0.6371350000000000    0.6371350000000000    0.2742700000000000 Se
   0.3628650000000000    0.3628650000000000    0.7257300000000001 Se
