Rb1 Sb1 F6
1.0
   5.0126747099999998   -0.0231279200000000   -0.5803778600000000
  -0.6488035600000001    4.9705647400000004   -0.5803649800000000
  -0.0203980100000000   -0.0231397700000000    5.0461211800000001
Rb Sb F
1 1 6
direct
   0.5000000000000000    0.5000000000000000    0.5000000000000000 Rb
   0.0000000000000000   -0.0000000000000000   -0.0000000000000000 Sb
   0.2026154500000000    0.3160738800000000    0.9223673600000000 F
   0.3160738800000000    0.9223673600000000    0.2026154500000000 F
   0.0776326400000000    0.7973845500000000    0.6839261200000000 F
   0.6839261200000000    0.0776326400000000    0.7973845500000000 F
   0.7973845500000000    0.6839261200000000    0.0776326400000000 F
   0.9223673600000000    0.2026154500000000    0.3160738800000000 F
