Ca2 Ge2 N4
1.0
   4.6485909799999998    0.0014683200000000   -2.4405269100000000
  -2.9506403600000000    4.3270038900000003   -0.3692386700000000
   0.0010013400000000   -0.0014683200000000    5.2502924899999996
Ca Ge N
2 2 4
direct
   0.5000000000000000    0.2500000000000000    0.7500000000000000 Ca
   0.0000000000000000    0.5000000000000000    0.5000000000000000 Ca
   0.0000000000000000    0.0000000000000000   -0.0000000000000000 Ge
   0.5000000000000000    0.7500000000000000    0.2500000000000000 Ge
   0.5800256400000000    0.8750000000000000    0.9550256400000000 N
   0.9199743600000000    0.0449743600000000    0.6250000000000000 N
   0.4199743600000000    0.3750000000000000    0.2949743600000000 N
   0.0800256400000000    0.7050256400000000    0.1250000000000000 N
