Cd1 Ga2 Te4
1.0
   5.6526422199999997    0.0001694800000000   -2.5918062300000000
  -1.1884684299999999    5.5263666799999998   -2.5916468300000002
  -0.0263193600000000   -0.0327953900000000    7.4026108800000001
Cd Ga Te
1 2 4
direct
   0.0000000000000000    0.0000000000000000    0.0000000000000000 Cd
   0.2500000000000000    0.7500000000000000    0.5000000000000000 Ga
   0.5000000000000000    0.5000000000000000    0.0000000000000000 Ga
   0.4104706600000000    0.3924090400000000    0.2744345800000000 Te
   0.1179734600000000    0.5895293400000000    0.7255654200000000 Te
   0.6075909600000000    0.1360370800000000    0.7255654200000000 Te
   0.8639629200000000    0.8820265400000000    0.2744345800000000 Te
