K2 Sb4
1.0
   4.0985943499999999   -0.0000000000000000   -1.2343894200000001
  -0.1823848500000000    7.0889502300000000   -0.6055792400000000
   0.0070138400000000   -0.0040724800000000    7.4448477000000004
K Sb
2 4
direct
   0.6317419500000000    0.6279030600000001    0.2634849100000000 K
   0.3682580500000000    0.3720969400000000    0.7365150900000000 K
   0.3137866800000000    0.8710633000000000    0.6275723600000001 Sb
   0.6862133200000000    0.1289367000000000    0.3724276400000000 Sb
   0.0543025700000000    0.1813590900000000    0.1086051300000000 Sb
   0.9456974300000001    0.8186409100000001    0.8913948700000001 Sb
