Ir2 Br6
1.0
   6.0559174100000002   -0.0000000100000000    2.0980127300000002
   3.0279582000000000    5.5487791800000004    1.0490053500000001
  -0.0969409600000000   -0.0000000100000000    6.5169928800000001
Ir Br
2 6
direct
   0.8333550000000000    0.3332900100000000    0.0000000000000000 Ir
   0.1666450000000000    0.6667099900000000   -0.0000000000000000 Ir
   0.5716083200000001    0.3522920600000000    0.7750526500000000 Br
   0.0760996200000000    0.3522920600000000    0.2249473500000000 Br
   0.7800739999999990   -0.0000000000000000    0.2253015000000000 Br
   0.2199259999999990    0.0000000000000000    0.7746985000000000 Br
   0.9239003800000000    0.6477089400000000    0.7750526500000000 Br
   0.4283916800000000    0.6477089400000000    0.2249473500000000 Br
