Rb2 S2
1.0
   4.5510978299999998    0.0000000000000000    2.0581792100000000
   1.7450443800000000    5.3926214999999997    2.2021552400000002
  -0.0089694900000000    0.0191399700000000    6.0806742500000004
Rb S
2 2
direct
   0.7251428300000000    0.7748571700000000    0.7748571700000000 Rb
   0.2748571700000000    0.2251428300000000    0.2251428300000000 Rb
  -0.0000000000000000    0.1543899000000000    0.8456100999999990 S
   0.0000000000000000    0.8456100999999990    0.1543899000000000 S
