Rb2 N6
1.0
   5.3111513500000003   -0.0313247900000000   -2.4038999400000001
  -3.0933441300000002    4.8356445800000003   -1.0229286900000001
  -0.0196292700000000    0.0306753600000000    5.8307194600000001
Rb N
2 6
direct
  -0.0000000000000000    0.7500009999999990    0.7499990000000000 Rb
  -0.0000000000000000    0.2499990000000000    0.2500010000000000 Rb
   0.5000000000000000   -0.0000000000000000    0.5000000000000000 N
   0.5000000000000000    0.5000000000000000   -0.0000000000000000 N
   0.7653766400000001    0.6326873200000001    0.1326873200000000 N
   0.5000000000000000    0.1326389800000000    0.3673610200000000 N
   0.5000000000000000    0.8673610200000000    0.6326389800000000 N
   0.2346233600000000    0.3673126800000000    0.8673126800000001 N
