Ba1 Li1 P1
1.0
   4.4153989999999999    0.0000000000000000    0.0000000000000000
  -2.2077000000000000    3.8238479999999999    0.0000000000000000
   0.0000000000000000    0.0000000000000000    4.5236939999999999
Ba Li P
1 1 1
direct
   0.0000000000000000    0.0000000000000000    0.0000000000000000 Ba
   0.3333330000000000    0.6666670000000000    0.5000000000000000 Li
   0.6666670000000000    0.3333330000000000    0.5000000000000000 P
