Cd2 Ge2 As4
1.0
   5.4130437899999997    0.0000000000000000   -2.5362265800000001
  -1.1883237900000001    5.2809963199999999   -2.5362265900000001
   0.0107611700000000    0.0134504400000000    7.0675807099999997
Cd Ge As
2 2 4
direct
   0.7500000000000000    0.2500000000000000    0.5000000000000000 Cd
   0.5000000000000000    0.5000000000000000    0.0000000000000000 Cd
  -0.0000000000000000    0.0000000000000000    0.0000000000000000 Ge
   0.2500000000000000    0.7500000000000000    0.5000000000000000 Ge
   0.3462175700000000    0.8750000000000000    0.2500000000000000 As
   0.6250000000000000    0.6537824300000000    0.7500000000000000 As
   0.9037824300000000    0.3750000000000000    0.2500000000000000 As
   0.1250000000000000    0.0962175700000000    0.7500000000000000 As
