Na2 Nb2 Se4
1.0
   3.5745049899999999    0.0000000100000000   -0.0000000000000000
  -1.7872519800000000    3.0956123799999999    0.0000000000000000
  -0.0000000000000000   -0.0000000000000000   14.8099592599999994
Na Nb Se
2 2 4
direct
  -0.0000000000000000   -0.0000000000000000   -0.0000000000000000 Na
  -0.0000000000000000   -0.0000000000000000    0.5000000000000000 Na
   0.0000000000000000   -0.0000000000000000    0.2500000000000000 Nb
  -0.0000000000000000    0.0000000000000000    0.7500000000000000 Nb
   0.3333330000000000    0.6666670000000000    0.1388276700000000 Se
   0.3333330000000000    0.6666670000000000    0.3611723300000000 Se
   0.6666670000000000    0.3333330000000000    0.6388276700000000 Se
   0.6666670000000000    0.3333330000000000    0.8611723300000000 Se
