Te2 Rh2 Cl2
1.0
   3.5453615200000002   -0.0000000000000000   -0.9952872100000000
  -0.8677051700000000    5.8435768000000001   -3.0908934600000002
   0.0636286500000000    0.1580004400000000    7.0388519699999996
Te Rh Cl
2 2 2
direct
   0.8605968400000000    0.5286585000000000    0.7211946900000000 Te
   0.1394031600000000    0.4713414999999990    0.2788053100000000 Te
   0.2511671100000000    0.2471576200000000    0.5023322100000001 Rh
   0.7488328900000000    0.7528423800000000    0.4976677900000000 Rh
   0.3631864100000000    0.0318538200000000    0.7263738300000000 Cl
   0.6368135900000000    0.9681461800000000    0.2736261700000000 Cl
