Na6 As2
1.0
   5.0270159999999997    0.0000000000000000    0.0000000000000000
  -2.5135069999999988    4.3535230000000000    0.0000000000000000
   0.0000000000000000    0.0000000000000000    8.9578249999999997
Na As
6 2
direct
   0.3333330000000000    0.6666670000000000    0.9195449999999999 Na
   0.6666670000000000    0.3333330000000000    0.4195450000000000 Na
   0.0000000000000000    0.0000000000000000    0.2500000000000000 Na
   0.0000000000000000    0.0000000000000000    0.7500000000000000 Na
   0.3333330000000000    0.6666670000000000    0.5804549999999991 Na
   0.6666670000000000    0.3333330000000000    0.0804550000000000 Na
   0.6666670000000000    0.3333330000000000    0.7500000000000000 As
   0.3333330000000000    0.6666670000000000    0.2500000000000000 As
