Sc1 Cu1 O2
1.0
   3.1007197899999999   -0.0024736500000000    5.1205304900000002
   1.4276501300000000    2.7525070800000000    5.1205304900000002
  -0.0040714000000000   -0.0024736500000000    5.9861733499999996
Sc Cu O
1 1 2
direct
   0.5000000000000000    0.5000000000000000    0.5000000000000000 Sc
  -0.0000000000000000   -0.0000000000000000   -0.0000000000000000 Cu
   0.8931700000000000    0.8931700000000000    0.8931700000000000 O
   0.1068290000000000    0.1068290000000000    0.1068290000000000 O
