AlAs3InSb3_110
1.0
4.248244 0.000000 0.000000
0.000000 6.007924 0.000000
0.000000 0.000000 12.987019
Al As In Sb 
3 3 3 3 
direct
0.000000 0.000000 0.000000 Al
0.500000 0.500000 0.147811 Al
0.000000 0.000000 0.295622 Al
0.500000 0.250000 0.000000 As
0.000000 0.750000 0.147811 As
0.500000 0.250000 0.295622 As
0.500000 0.500000 0.462432 In
0.000000 0.000000 0.647811 In
0.500000 0.500000 0.833190 In
0.000000 0.750000 0.462432 Sb
0.500000 0.250000 0.647811 Sb
0.000000 0.750000 0.833190 Sb
