GaP3InP3_001
1.0
3.965915 0.000000 0.000000
0.000000 3.965915 0.000000
0.000000 0.000000 17.149024
Ga P In 
3 6 3 
direct
0.000000 0.000000 0.000000 Ga
0.500000 0.500000 0.153599 Ga
0.000000 0.000000 0.307198 Ga
0.500000 0.000000 0.076799 P
1.000000 0.500000 0.230398 P
0.500000 0.000000 0.383997 P
1.000000 0.500000 0.563732 P
0.500000 0.000000 0.743466 P
1.000000 0.500000 0.923201 P
0.500000 0.500000 0.473864 In
0.000000 0.000000 0.653599 In
0.500000 0.500000 0.833333 In
