AlP3GaP3_110
1.0
3.839590 0.000000 0.000000
0.000000 5.430000 0.000000
0.000000 0.000000 11.518769
Al P Ga 
3 6 3 
direct
0.000000 0.000000 0.000000 Al
0.500000 0.500000 0.166667 Al
0.000000 0.000000 0.333333 Al
0.500000 0.250000 0.000000 P
0.000000 0.750000 0.166667 P
0.500000 0.250000 0.333333 P
0.000000 0.750000 0.500000 P
0.500000 0.250000 0.666667 P
0.000000 0.750000 0.833333 P
0.500000 0.500000 0.500000 Ga
0.000000 0.000000 0.666667 Ga
0.500000 0.500000 0.833333 Ga
