GaAs3AlP3_001
1.0
3.915929 0.000000 0.000000
0.000000 3.915929 0.000000
0.000000 0.000000 16.621399
Ga As Al P 
3 3 3 3 
direct
0.000000 0.000000 0.000000 Ga
0.500000 0.500000 0.173110 Ga
0.000000 0.000000 0.346219 Ga
0.500000 0.000000 0.086555 As
1.000000 0.500000 0.259664 As
0.500000 0.000000 0.432774 As
0.500000 0.500000 0.519194 Al
0.000000 0.000000 0.679436 Al
0.500000 0.500000 0.839678 Al
1.000000 0.500000 0.599315 P
0.500000 0.000000 0.759557 P
1.000000 0.500000 0.919799 P
