GaP3GaAs3_110
1.0
3.912590 0.000000 0.000000
0.000000 5.533237 0.000000
0.000000 0.000000 11.761918
Ga P As 
6 3 3 
direct
0.000000 0.000000 0.000000 Ga
0.500000 0.500000 0.161487 Ga
0.000000 0.000000 0.322973 Ga
0.500000 0.500000 0.489617 Ga
0.000000 0.000000 0.661487 Ga
0.500000 0.500000 0.833356 Ga
0.500000 0.250000 0.000000 P
0.000000 0.750000 0.161487 P
0.500000 0.250000 0.322973 P
0.000000 0.750000 0.489617 As
0.500000 0.250000 0.661487 As
0.000000 0.750000 0.833356 As
