AlP3InP3_001
1.0
3.973977 0.000000 0.000000
0.000000 3.973977 0.000000
0.000000 0.000000 17.100286
Al P In 
3 6 3 
direct
0.000000 0.000000 0.000000 Al
0.500000 0.500000 0.153462 Al
0.000000 0.000000 0.306925 Al
0.500000 0.000000 0.076731 P
1.000000 0.500000 0.230194 P
0.500000 0.000000 0.383656 P
1.000000 0.500000 0.563527 P
0.500000 0.000000 0.743398 P
1.000000 0.500000 0.923269 P
0.500000 0.500000 0.473591 In
0.000000 0.000000 0.653462 In
0.500000 0.500000 0.833333 In
