InSb3AlAs3_110
1.0
4.248244 0.000000 0.000000
0.000000 6.007924 0.000000
0.000000 0.000000 12.987019
In Sb Al As 
3 3 3 3 
direct
0.000000 0.000000 0.000000 In
0.500000 0.500000 0.185379 In
0.000000 0.000000 0.370759 In
0.500000 0.250000 0.000000 Sb
0.000000 0.750000 0.185379 Sb
0.500000 0.250000 0.370759 Sb
0.500000 0.500000 0.537568 Al
0.000000 0.000000 0.685379 Al
0.500000 0.500000 0.833190 Al
0.000000 0.750000 0.537568 As
0.500000 0.250000 0.685379 As
0.000000 0.750000 0.833190 As
