InP3AlSb3_110
1.0
4.186160 0.000000 0.000000
0.000000 5.920124 0.000000
0.000000 0.000000 12.723733
In P Al Sb 
3 3 3 3 
direct
0.000000 0.000000 0.000000 In
0.500000 0.500000 0.162097 In
0.000000 0.000000 0.324193 In
0.500000 0.250000 0.000000 P
0.000000 0.750000 0.162097 P
0.500000 0.250000 0.324193 P
0.500000 0.500000 0.490305 Al
0.000000 0.000000 0.662097 Al
0.500000 0.500000 0.833889 Al
0.000000 0.750000 0.490305 Sb
0.500000 0.250000 0.662097 Sb
0.000000 0.750000 0.833889 Sb
