AlSb3InAs3_001
1.0
4.281199 0.000000 0.000000
0.000000 4.281199 0.000000
0.000000 0.000000 18.327169
Al Sb In As 
3 3 3 3 
direct
0.000000 0.000000 0.000000 Al
0.500000 0.500000 0.166562 Al
0.000000 0.000000 0.333124 Al
0.500000 0.000000 0.083281 Sb
1.000000 0.500000 0.249843 Sb
0.500000 0.000000 0.416405 Sb
0.500000 0.500000 0.511066 In
0.000000 0.000000 0.677696 In
0.500000 0.500000 0.844326 In
1.000000 0.500000 0.594381 As
0.500000 0.000000 0.761011 As
1.000000 0.500000 0.927641 As
