InP3GaSb3_110
1.0
4.179894 0.000000 0.000000
0.000000 5.911263 0.000000
0.000000 0.000000 12.726862
In P Ga Sb 
3 3 3 3 
direct
0.000000 0.000000 0.000000 In
0.500000 0.500000 0.162236 In
0.000000 0.000000 0.324472 In
0.500000 0.250000 0.000000 P
0.000000 0.750000 0.162236 P
0.500000 0.250000 0.324472 P
0.500000 0.500000 0.490666 Ga
0.000000 0.000000 0.662236 Ga
0.500000 0.500000 0.833806 Ga
0.000000 0.750000 0.490666 Sb
0.500000 0.250000 0.662236 Sb
0.000000 0.750000 0.833806 Sb
