GaSb3AlAs3_001
1.0
4.126836 0.000000 0.000000
0.000000 4.126836 0.000000
0.000000 0.000000 17.690343
Ga Sb Al As 
3 3 3 3 
direct
0.000000 0.000000 0.000000 Ga
0.500000 0.500000 0.178115 Ga
0.000000 0.000000 0.356230 Ga
0.500000 0.000000 0.089058 Sb
1.000000 0.500000 0.267173 Sb
0.500000 0.000000 0.445288 Sb
0.500000 0.500000 0.534621 Al
0.000000 0.000000 0.689817 Al
0.500000 0.500000 0.845014 Al
1.000000 0.500000 0.612219 As
0.500000 0.000000 0.767416 As
1.000000 0.500000 0.922612 As
