HgTe3ZnTe3_110
1.0
4.428146 0.000000 0.000000
0.000000 6.262344 0.000000
0.000000 0.000000 13.381728
Hg Te Zn 
3 6 3 
direct
0.000000 0.000000 0.000000 Hg
0.500000 0.500000 0.176663 Hg
0.000000 0.000000 0.353326 Hg
0.500000 0.250000 0.000000 Te
0.000000 0.750000 0.176663 Te
0.500000 0.250000 0.353326 Te
0.000000 0.750000 0.519644 Te
0.500000 0.250000 0.676663 Te
0.000000 0.750000 0.833682 Te
0.500000 0.500000 0.519644 Zn
0.000000 0.000000 0.676663 Zn
0.500000 0.500000 0.833682 Zn
