ZnTe3ZnSe3_110
1.0
4.137217 0.000000 0.000000
0.000000 5.850909 0.000000
0.000000 0.000000 12.468791
Zn Te Se 
6 3 3 
direct
0.000000 0.000000 0.000000 Zn
0.500000 0.500000 0.177277 Zn
0.000000 0.000000 0.354554 Zn
0.500000 0.500000 0.521150 Zn
0.000000 0.000000 0.677277 Zn
0.500000 0.500000 0.833404 Zn
0.500000 0.250000 0.000000 Te
0.000000 0.750000 0.177277 Te
0.500000 0.250000 0.354554 Te
0.000000 0.750000 0.521150 Se
0.500000 0.250000 0.677277 Se
0.000000 0.750000 0.833404 Se
