InSb3GaP3_110
1.0
4.139040 0.000000 0.000000
0.000000 5.853486 0.000000
0.000000 0.000000 12.844113
In Sb Ga P 
3 3 3 3 
direct
0.000000 0.000000 0.000000 In
0.500000 0.500000 0.190409 In
0.000000 0.000000 0.380818 In
0.500000 0.250000 0.000000 Sb
0.000000 0.750000 0.190409 Sb
0.500000 0.250000 0.380818 Sb
0.500000 0.500000 0.547457 Ga
0.000000 0.000000 0.690409 Ga
0.500000 0.500000 0.833362 Ga
0.000000 0.750000 0.547457 P
0.500000 0.250000 0.690409 P
0.000000 0.750000 0.833362 P
