ZnTe3CdTe3_110
1.0
4.422669 0.000000 0.000000
0.000000 6.254599 0.000000
0.000000 0.000000 13.399904
Zn Te Cd 
3 6 3 
direct
0.000000 0.000000 0.000000 Zn
0.500000 0.500000 0.156960 Zn
0.000000 0.000000 0.313919 Zn
0.500000 0.250000 0.000000 Te
0.000000 0.750000 0.156960 Te
0.500000 0.250000 0.313919 Te
0.000000 0.750000 0.480194 Te
0.500000 0.250000 0.656960 Te
0.000000 0.750000 0.833726 Te
0.500000 0.500000 0.480194 Cd
0.000000 0.000000 0.656960 Cd
0.500000 0.500000 0.833726 Cd
