InSb3GaAs3_001
1.0
4.223359 0.000000 0.000000
0.000000 4.223359 0.000000
0.000000 0.000000 18.564104
In Sb Ga As 
3 3 3 3 
direct
0.000000 0.000000 0.000000 In
0.500000 0.500000 0.189286 In
0.000000 0.000000 0.378572 In
0.500000 0.000000 0.094643 Sb
1.000000 0.500000 0.283929 Sb
0.500000 0.000000 0.473215 Sb
0.500000 0.500000 0.556408 Ga
0.000000 0.000000 0.700465 Ga
0.500000 0.500000 0.844521 Ga
1.000000 0.500000 0.628436 As
0.500000 0.000000 0.772493 As
1.000000 0.500000 0.916550 As
