InAs3InSb3_001
1.0
4.428904 0.000000 0.000000
0.000000 4.428904 0.000000
0.000000 0.000000 18.891532
In As Sb 
6 3 3 
direct
0.000000 0.000000 0.000000 In
0.500000 0.500000 0.155637 In
0.000000 0.000000 0.311274 In
0.500000 0.500000 0.466911 In
0.000000 0.000000 0.644607 In
0.500000 0.500000 0.822304 In
0.500000 0.000000 0.077819 As
1.000000 0.500000 0.233456 As
0.500000 0.000000 0.389093 As
1.000000 0.500000 0.555759 Sb
0.500000 0.000000 0.733456 Sb
1.000000 0.500000 0.911152 Sb
