ZnTe3ZnSe3_001
1.0
4.145254 0.000000 0.000000
0.000000 4.145254 0.000000
0.000000 0.000000 17.583959
Zn Te Se 
6 3 3 
direct
0.000000 0.000000 0.000000 Zn
0.500000 0.500000 0.179955 Zn
0.000000 0.000000 0.359910 Zn
0.500000 0.500000 0.539865 Zn
0.000000 0.000000 0.693243 Zn
0.500000 0.500000 0.846622 Zn
0.500000 0.000000 0.089977 Te
1.000000 0.500000 0.269932 Te
0.500000 0.000000 0.449887 Te
1.000000 0.500000 0.616554 Se
0.500000 0.000000 0.769932 Se
1.000000 0.500000 0.923311 Se
