InAs3AlAs3_001
1.0
4.114147 0.000000 0.000000
0.000000 4.114147 0.000000
0.000000 0.000000 17.806555
In As Al 
3 6 3 
direct
0.000000 0.000000 0.000000 In
0.500000 0.500000 0.178719 In
0.000000 0.000000 0.357439 In
0.500000 0.000000 0.089360 As
1.000000 0.500000 0.268079 As
0.500000 0.000000 0.446798 As
1.000000 0.500000 0.601412 As
0.500000 0.000000 0.756026 As
1.000000 0.500000 0.910640 As
0.500000 0.500000 0.524105 Al
0.000000 0.000000 0.678719 Al
0.500000 0.500000 0.833333 Al
