AlSb3GaP3_110
1.0
4.029799 0.000000 0.000000
0.000000 5.698996 0.000000
0.000000 0.000000 12.298166
Al Sb Ga P 
3 3 3 3 
direct
0.000000 0.000000 0.000000 Al
0.500000 0.500000 0.181812 Al
0.000000 0.000000 0.363623 Al
0.500000 0.250000 0.000000 Sb
0.000000 0.750000 0.181812 Sb
0.500000 0.250000 0.363623 Sb
0.500000 0.500000 0.530030 Ga
0.000000 0.000000 0.681812 Ga
0.500000 0.500000 0.833593 Ga
0.000000 0.750000 0.530030 P
0.500000 0.250000 0.681812 P
0.000000 0.750000 0.833593 P
