AlP3InAs3_110
1.0
4.045145 0.000000 0.000000
0.000000 5.720699 0.000000
0.000000 0.000000 12.273573
Al P In As 
3 3 3 3 
direct
0.000000 0.000000 0.000000 Al
0.500000 0.500000 0.151200 Al
0.000000 0.000000 0.302400 Al
0.500000 0.250000 0.000000 P
0.000000 0.750000 0.151200 P
0.500000 0.250000 0.302400 P
0.500000 0.500000 0.469083 In
0.000000 0.000000 0.651200 In
0.500000 0.500000 0.833317 In
0.000000 0.750000 0.469083 As
0.500000 0.250000 0.651200 As
0.000000 0.750000 0.833317 As
