GaAs3AlSb3_110
1.0
4.128724 0.000000 0.000000
0.000000 5.838897 0.000000
0.000000 0.000000 12.484290
Ga As Al Sb 
3 3 3 3 
direct
0.000000 0.000000 0.000000 Ga
0.500000 0.500000 0.156904 Ga
0.000000 0.000000 0.313809 Ga
0.500000 0.250000 0.000000 As
0.000000 0.750000 0.156904 As
0.500000 0.250000 0.313809 As
0.500000 0.500000 0.480343 Al
0.000000 0.000000 0.656904 Al
0.500000 0.500000 0.833466 Al
0.000000 0.750000 0.480343 Sb
0.500000 0.250000 0.656904 Sb
0.000000 0.750000 0.833466 Sb
