ZnS3ZnSe3_001
1.0
3.899064 0.000000 0.000000
0.000000 3.899064 0.000000
0.000000 0.000000 16.607216
Zn S Se 
6 3 3 
direct
0.000000 0.000000 0.000000 Zn
0.500000 0.500000 0.158292 Zn
0.000000 0.000000 0.316585 Zn
0.500000 0.500000 0.474877 Zn
0.000000 0.000000 0.649918 Zn
0.500000 0.500000 0.824959 Zn
0.500000 0.000000 0.079146 S
1.000000 0.500000 0.237439 S
0.500000 0.000000 0.395731 S
1.000000 0.500000 0.562398 Se
0.500000 0.000000 0.737439 Se
1.000000 0.500000 0.912480 Se
