InSb3AlSb3_001
1.0
4.421557 0.000000 0.000000
0.000000 4.421557 0.000000
0.000000 0.000000 18.950755
In Sb Al 
3 6 3 
direct
0.000000 0.000000 0.000000 In
0.500000 0.500000 0.177437 In
0.000000 0.000000 0.354874 In
0.500000 0.000000 0.088719 Sb
1.000000 0.500000 0.266156 Sb
0.500000 0.000000 0.443593 Sb
1.000000 0.500000 0.599489 Sb
0.500000 0.000000 0.755385 Sb
1.000000 0.500000 0.911281 Sb
0.500000 0.500000 0.521541 Al
0.000000 0.000000 0.677437 Al
0.500000 0.500000 0.833333 Al
