AlP3InSb3_110
1.0
4.151923 0.000000 0.000000
0.000000 5.871706 0.000000
0.000000 0.000000 12.802210
Al P In Sb 
3 3 3 3 
direct
0.000000 0.000000 0.000000 Al
0.500000 0.500000 0.142358 Al
0.000000 0.000000 0.284717 Al
0.500000 0.250000 0.000000 P
0.000000 0.750000 0.142358 P
0.500000 0.250000 0.284717 P
0.500000 0.500000 0.451677 In
0.000000 0.000000 0.642358 In
0.500000 0.500000 0.833040 In
0.000000 0.750000 0.451677 Sb
0.500000 0.250000 0.642358 Sb
0.000000 0.750000 0.833040 Sb
