GaP3InAs3_110
1.0
4.036354 0.000000 0.000000
0.000000 5.708266 0.000000
0.000000 0.000000 12.302814
Ga P In As 
3 3 3 3 
direct
0.000000 0.000000 0.000000 Ga
0.500000 0.500000 0.151575 Ga
0.000000 0.000000 0.303150 Ga
0.500000 0.250000 0.000000 P
0.000000 0.750000 0.151575 P
0.500000 0.250000 0.303150 P
0.500000 0.500000 0.469650 In
0.000000 0.000000 0.651575 In
0.500000 0.500000 0.833500 In
0.000000 0.750000 0.469650 As
0.500000 0.250000 0.651575 As
0.000000 0.750000 0.833500 As
