AlP3InAs3_001
1.0
4.029097 0.000000 0.000000
0.000000 4.029097 0.000000
0.000000 0.000000 17.505296
Al P In As 
3 3 3 3 
direct
0.000000 0.000000 0.000000 Al
0.500000 0.500000 0.147785 Al
0.000000 0.000000 0.295571 Al
0.500000 0.000000 0.073893 P
1.000000 0.500000 0.221678 P
0.500000 0.000000 0.369464 P
0.500000 0.500000 0.456064 In
0.000000 0.000000 0.641596 In
0.500000 0.500000 0.827129 In
1.000000 0.500000 0.548830 As
0.500000 0.000000 0.734363 As
1.000000 0.500000 0.919896 As
