GaSb3InP3_001
1.0
4.201526 0.000000 0.000000
0.000000 4.201526 0.000000
0.000000 0.000000 18.000278
Ga Sb In P 
3 3 3 3 
direct
0.000000 0.000000 0.000000 Ga
0.500000 0.500000 0.172378 Ga
0.000000 0.000000 0.344756 Ga
0.500000 0.000000 0.086189 Sb
1.000000 0.500000 0.258567 Sb
0.500000 0.000000 0.430946 Sb
0.500000 0.500000 0.529016 In
0.000000 0.000000 0.689820 In
0.500000 0.500000 0.850623 In
1.000000 0.500000 0.609418 P
0.500000 0.000000 0.770222 P
1.000000 0.500000 0.931025 P
