InSb3InP3_110
1.0
4.330087 0.000000 0.000000
0.000000 6.123667 0.000000
0.000000 0.000000 13.170485
In Sb P 
6 3 3 
direct
0.000000 0.000000 0.000000 In
0.500000 0.500000 0.180628 In
0.000000 0.000000 0.361257 In
0.500000 0.500000 0.528002 In
0.000000 0.000000 0.680628 In
0.500000 0.500000 0.833254 In
0.500000 0.250000 0.000000 Sb
0.000000 0.750000 0.180628 Sb
0.500000 0.250000 0.361257 Sb
0.000000 0.750000 0.528002 P
0.500000 0.250000 0.680628 P
0.000000 0.750000 0.833254 P
