GaSb3GaP3_110
1.0
4.029327 0.000000 0.000000
0.000000 5.698329 0.000000
0.000000 0.000000 12.278299
Ga Sb P 
6 3 3 
direct
0.000000 0.000000 0.000000 Ga
0.500000 0.500000 0.181327 Ga
0.000000 0.000000 0.362654 Ga
0.500000 0.500000 0.529289 Ga
0.000000 0.000000 0.681327 Ga
0.500000 0.500000 0.833365 Ga
0.500000 0.250000 0.000000 Sb
0.000000 0.750000 0.181327 Sb
0.500000 0.250000 0.362654 Sb
0.000000 0.750000 0.529289 P
0.500000 0.250000 0.681327 P
0.000000 0.750000 0.833365 P
