AlSb3InSb3_110
1.0
4.425095 0.000000 0.000000
0.000000 6.258029 0.000000
0.000000 0.000000 13.361156
Al Sb In 
3 6 3 
direct
0.000000 0.000000 0.000000 Al
0.500000 0.500000 0.157865 Al
0.000000 0.000000 0.315730 Al
0.500000 0.250000 0.000000 Sb
0.000000 0.750000 0.157865 Sb
0.500000 0.250000 0.315730 Sb
0.000000 0.750000 0.482296 Sb
0.500000 0.250000 0.657865 Sb
0.000000 0.750000 0.833434 Sb
0.500000 0.500000 0.482296 In
0.000000 0.000000 0.657865 In
0.500000 0.500000 0.833434 In
