GaAs3GaSb3_001
1.0
4.130931 0.000000 0.000000
0.000000 4.130931 0.000000
0.000000 0.000000 17.650826
Ga As Sb 
6 3 3 
direct
0.000000 0.000000 0.000000 Ga
0.500000 0.500000 0.154969 Ga
0.000000 0.000000 0.309938 Ga
0.500000 0.500000 0.464906 Ga
0.000000 0.000000 0.643271 Ga
0.500000 0.500000 0.821635 Ga
0.500000 0.000000 0.077484 As
1.000000 0.500000 0.232453 As
0.500000 0.000000 0.387422 As
1.000000 0.500000 0.554089 Sb
0.500000 0.000000 0.732453 Sb
1.000000 0.500000 0.910818 Sb
