AlP3GaSb3_110
1.0
4.035458 0.000000 0.000000
0.000000 5.706999 0.000000
0.000000 0.000000 12.256612
Al P Ga Sb 
3 3 3 3 
direct
0.000000 0.000000 0.000000 Al
0.500000 0.500000 0.151655 Al
0.000000 0.000000 0.303311 Al
0.500000 0.250000 0.000000 P
0.000000 0.750000 0.151655 P
0.500000 0.250000 0.303311 P
0.500000 0.500000 0.470150 Ga
0.000000 0.000000 0.651655 Ga
0.500000 0.500000 0.833161 Ga
0.000000 0.750000 0.470150 Sb
0.500000 0.250000 0.651655 Sb
0.000000 0.750000 0.833161 Sb
