GaAs3GaP3_110
1.0
3.912590 0.000000 0.000000
0.000000 5.533237 0.000000
0.000000 0.000000 11.761918
Ga As P 
6 3 3 
direct
0.000000 0.000000 0.000000 Ga
0.500000 0.500000 0.171870 Ga
0.000000 0.000000 0.343740 Ga
0.500000 0.500000 0.510383 Ga
0.000000 0.000000 0.671870 Ga
0.500000 0.500000 0.833356 Ga
0.500000 0.250000 0.000000 As
0.000000 0.750000 0.171870 As
0.500000 0.250000 0.343740 As
0.000000 0.750000 0.510383 P
0.500000 0.250000 0.671870 P
0.000000 0.750000 0.833356 P
