AlP3AlSb3_001
1.0
4.033831 0.000000 0.000000
0.000000 4.033831 0.000000
0.000000 0.000000 17.428818
Al P Sb 
6 3 3 
direct
0.000000 0.000000 0.000000 Al
0.500000 0.500000 0.148251 Al
0.000000 0.000000 0.296501 Al
0.500000 0.500000 0.444752 Al
0.000000 0.000000 0.629834 Al
0.500000 0.500000 0.814917 Al
0.500000 0.000000 0.074125 P
1.000000 0.500000 0.222376 P
0.500000 0.000000 0.370626 P
1.000000 0.500000 0.537293 Sb
0.500000 0.000000 0.722376 Sb
1.000000 0.500000 0.907459 Sb
