InP3AlP3_001
1.0
3.973977 0.000000 0.000000
0.000000 3.973977 0.000000
0.000000 0.000000 17.100286
In P Al 
3 6 3 
direct
0.000000 0.000000 0.000000 In
0.500000 0.500000 0.179871 In
0.000000 0.000000 0.359742 In
0.500000 0.000000 0.089935 P
1.000000 0.500000 0.269806 P
0.500000 0.000000 0.449677 P
1.000000 0.500000 0.603140 P
0.500000 0.000000 0.756602 P
1.000000 0.500000 0.910065 P
0.500000 0.500000 0.526409 Al
0.000000 0.000000 0.679871 Al
0.500000 0.500000 0.833333 Al
