GaSb3InSb3_001
1.0
4.416716 0.000000 0.000000
0.000000 4.416716 0.000000
0.000000 0.000000 18.991954
Ga Sb In 
3 6 3 
direct
0.000000 0.000000 0.000000 Ga
0.500000 0.500000 0.156087 Ga
0.000000 0.000000 0.312173 Ga
0.500000 0.000000 0.078043 Sb
1.000000 0.500000 0.234130 Sb
0.500000 0.000000 0.390216 Sb
1.000000 0.500000 0.567463 Sb
0.500000 0.000000 0.744710 Sb
1.000000 0.500000 0.921957 Sb
0.500000 0.500000 0.478840 In
0.000000 0.000000 0.656087 In
0.500000 0.500000 0.833333 In
