GaAs3AlAs3_110
1.0
3.995153 0.000000 0.000000
0.000000 5.650000 0.000000
0.000000 0.000000 11.985460
Ga As Al 
3 6 3 
direct
0.000000 0.000000 0.000000 Ga
0.500000 0.500000 0.166667 Ga
0.000000 0.000000 0.333333 Ga
0.500000 0.250000 0.000000 As
0.000000 0.750000 0.166667 As
0.500000 0.250000 0.333333 As
0.000000 0.750000 0.500000 As
0.500000 0.250000 0.666667 As
0.000000 0.750000 0.833333 As
0.500000 0.500000 0.500000 Al
0.000000 0.000000 0.666667 Al
0.500000 0.500000 0.833333 Al
