GaAs3InSb3_001
1.0
4.223359 0.000000 0.000000
0.000000 4.223359 0.000000
0.000000 0.000000 18.564104
Ga As In Sb 
3 3 3 3 
direct
0.000000 0.000000 0.000000 Ga
0.500000 0.500000 0.144057 Ga
0.000000 0.000000 0.288113 Ga
0.500000 0.000000 0.072028 As
1.000000 0.500000 0.216085 As
0.500000 0.000000 0.360142 As
0.500000 0.500000 0.443592 In
0.000000 0.000000 0.632878 In
0.500000 0.500000 0.822164 In
1.000000 0.500000 0.538235 Sb
0.500000 0.000000 0.727521 Sb
1.000000 0.500000 0.916807 Sb
