GaSb3InAs3_110
1.0
4.271058 0.000000 0.000000
0.000000 6.040188 0.000000
0.000000 0.000000 12.933224
Ga Sb In As 
3 3 3 3 
direct
0.000000 0.000000 0.000000 Ga
0.500000 0.500000 0.166827 Ga
0.000000 0.000000 0.333654 Ga
0.500000 0.250000 0.000000 Sb
0.000000 0.750000 0.166827 Sb
0.500000 0.250000 0.333654 Sb
0.500000 0.500000 0.499886 In
0.000000 0.000000 0.666827 In
0.500000 0.500000 0.833769 In
0.000000 0.750000 0.499886 As
0.500000 0.250000 0.666827 As
0.000000 0.750000 0.833769 As
