ZnS3ZnTe3_110
1.0
4.025185 0.000000 0.000000
0.000000 5.692471 0.000000
0.000000 0.000000 12.240128
Zn S Te 
6 3 3 
direct
0.000000 0.000000 0.000000 Zn
0.500000 0.500000 0.149101 Zn
0.000000 0.000000 0.298202 Zn
0.500000 0.500000 0.465075 Zn
0.000000 0.000000 0.649101 Zn
0.500000 0.500000 0.833127 Zn
0.500000 0.250000 0.000000 S
0.000000 0.750000 0.149101 S
0.500000 0.250000 0.298202 S
0.000000 0.750000 0.465075 Te
0.500000 0.250000 0.649101 Te
0.000000 0.750000 0.833127 Te
