InAs3AlSb3_001
1.0
4.281199 0.000000 0.000000
0.000000 4.281199 0.000000
0.000000 0.000000 18.327169
In As Al Sb 
3 3 3 3 
direct
0.000000 0.000000 0.000000 In
0.500000 0.500000 0.166630 In
0.000000 0.000000 0.333260 In
0.500000 0.000000 0.083315 As
1.000000 0.500000 0.249945 As
0.500000 0.000000 0.416575 As
0.500000 0.500000 0.488934 Al
0.000000 0.000000 0.655496 Al
0.500000 0.500000 0.822058 Al
1.000000 0.500000 0.572215 Sb
0.500000 0.000000 0.738777 Sb
1.000000 0.500000 0.905339 Sb
