GaP3InSb3_110
1.0
4.139040 0.000000 0.000000
0.000000 5.853486 0.000000
0.000000 0.000000 12.844113
Ga P In Sb 
3 3 3 3 
direct
0.000000 0.000000 0.000000 Ga
0.500000 0.500000 0.142953 Ga
0.000000 0.000000 0.285905 Ga
0.500000 0.250000 0.000000 P
0.000000 0.750000 0.142953 P
0.500000 0.250000 0.285905 P
0.500000 0.500000 0.452543 In
0.000000 0.000000 0.642953 In
0.500000 0.500000 0.833362 In
0.000000 0.750000 0.452543 Sb
0.500000 0.250000 0.642953 Sb
0.000000 0.750000 0.833362 Sb
