GaP3AlAs3_110
1.0
3.912729 0.000000 0.000000
0.000000 5.533434 0.000000
0.000000 0.000000 11.764796
Ga P Al As 
3 3 3 3 
direct
0.000000 0.000000 0.000000 Ga
0.500000 0.500000 0.161444 Ga
0.000000 0.000000 0.322887 Ga
0.500000 0.250000 0.000000 P
0.000000 0.750000 0.161444 P
0.500000 0.250000 0.322887 P
0.500000 0.500000 0.489493 Al
0.000000 0.000000 0.661444 Al
0.500000 0.500000 0.833394 Al
0.000000 0.750000 0.489493 As
0.500000 0.250000 0.661444 As
0.000000 0.750000 0.833394 As
