GaAs3GaP3_001
1.0
3.912174 0.000000 0.000000
0.000000 3.912174 0.000000
0.000000 0.000000 16.644907
Ga As P 
6 3 3 
direct
0.000000 0.000000 0.000000 Ga
0.500000 0.500000 0.173014 Ga
0.000000 0.000000 0.346028 Ga
0.500000 0.500000 0.519042 Ga
0.000000 0.000000 0.679361 Ga
0.500000 0.500000 0.839681 Ga
0.500000 0.000000 0.086507 As
1.000000 0.500000 0.259521 As
0.500000 0.000000 0.432535 As
1.000000 0.500000 0.599202 P
0.500000 0.000000 0.759521 P
1.000000 0.500000 0.919840 P
