InP3AlAs3_001
1.0
4.055262 0.000000 0.000000
0.000000 4.055262 0.000000
0.000000 0.000000 17.397947
In P Al As 
3 3 3 3 
direct
0.000000 0.000000 0.000000 In
0.500000 0.500000 0.173070 In
0.000000 0.000000 0.346141 In
0.500000 0.000000 0.086535 P
1.000000 0.500000 0.259606 P
0.500000 0.000000 0.432676 P
0.500000 0.500000 0.506517 Al
0.000000 0.000000 0.666806 Al
0.500000 0.500000 0.827095 Al
1.000000 0.500000 0.586661 As
0.500000 0.000000 0.746951 As
1.000000 0.500000 0.907240 As
