AlP3AlAs3_110
1.0
3.914921 0.000000 0.000000
0.000000 5.536535 0.000000
0.000000 0.000000 11.756124
Al P As 
6 3 3 
direct
0.000000 0.000000 0.000000 Al
0.500000 0.500000 0.161306 Al
0.000000 0.000000 0.322611 Al
0.500000 0.500000 0.489286 Al
0.000000 0.000000 0.661306 Al
0.500000 0.500000 0.833326 Al
0.500000 0.250000 0.000000 P
0.000000 0.750000 0.161306 P
0.500000 0.250000 0.322611 P
0.000000 0.750000 0.489286 As
0.500000 0.250000 0.661306 As
0.000000 0.750000 0.833326 As
