ZnSe3ZnTe3_001
1.0
4.145254 0.000000 0.000000
0.000000 4.145254 0.000000
0.000000 0.000000 17.583959
Zn Se Te 
6 3 3 
direct
0.000000 0.000000 0.000000 Zn
0.500000 0.500000 0.153378 Zn
0.000000 0.000000 0.306757 Zn
0.500000 0.500000 0.460135 Zn
0.000000 0.000000 0.640090 Zn
0.500000 0.500000 0.820045 Zn
0.500000 0.000000 0.076689 Se
1.000000 0.500000 0.230068 Se
0.500000 0.000000 0.383446 Se
1.000000 0.500000 0.550113 Te
0.500000 0.000000 0.730068 Te
1.000000 0.500000 0.910023 Te
