GaSb3InAs3_001
1.0
4.283436 0.000000 0.000000
0.000000 4.283436 0.000000
0.000000 0.000000 18.307038
Ga Sb In As 
3 3 3 3 
direct
0.000000 0.000000 0.000000 Ga
0.500000 0.500000 0.166611 Ga
0.000000 0.000000 0.333222 Ga
0.500000 0.000000 0.083305 Sb
1.000000 0.500000 0.249916 Sb
0.500000 0.000000 0.416527 Sb
0.500000 0.500000 0.511246 In
0.000000 0.000000 0.677965 In
0.500000 0.500000 0.844684 In
1.000000 0.500000 0.594605 As
0.500000 0.000000 0.761325 As
1.000000 0.500000 0.928044 As
