AlSb3AlAs3_110
1.0
4.129906 0.000000 0.000000
0.000000 5.840569 0.000000
0.000000 0.000000 12.477917
Al Sb As 
6 3 3 
direct
0.000000 0.000000 0.000000 Al
0.500000 0.500000 0.176621 Al
0.000000 0.000000 0.353243 Al
0.500000 0.500000 0.519859 Al
0.000000 0.000000 0.676621 Al
0.500000 0.500000 0.833384 Al
0.500000 0.250000 0.000000 Sb
0.000000 0.750000 0.176621 Sb
0.500000 0.250000 0.353243 Sb
0.000000 0.750000 0.519859 As
0.500000 0.250000 0.676621 As
0.000000 0.750000 0.833384 As
