InAs3InP3_110
1.0
4.219499 0.000000 0.000000
0.000000 5.967272 0.000000
0.000000 0.000000 12.682437
In As P 
6 3 3 
direct
0.000000 0.000000 0.000000 In
0.500000 0.500000 0.171613 In
0.000000 0.000000 0.343225 In
0.500000 0.500000 0.509944 In
0.000000 0.000000 0.671613 In
0.500000 0.500000 0.833282 In
0.500000 0.250000 0.000000 As
0.000000 0.750000 0.171613 As
0.500000 0.250000 0.343225 As
0.000000 0.750000 0.509944 P
0.500000 0.250000 0.671613 P
0.000000 0.750000 0.833282 P
