InP3InAs3_110
1.0
4.219499 0.000000 0.000000
0.000000 5.967272 0.000000
0.000000 0.000000 12.682437
In P As 
6 3 3 
direct
0.000000 0.000000 0.000000 In
0.500000 0.500000 0.161669 In
0.000000 0.000000 0.323338 In
0.500000 0.500000 0.490056 In
0.000000 0.000000 0.661669 In
0.500000 0.500000 0.833282 In
0.500000 0.250000 0.000000 P
0.000000 0.750000 0.161669 P
0.500000 0.250000 0.323338 P
0.000000 0.750000 0.490056 As
0.500000 0.250000 0.661669 As
0.000000 0.750000 0.833282 As
