InAs3AlP3_110
1.0
4.045145 0.000000 0.000000
0.000000 5.720699 0.000000
0.000000 0.000000 12.273573
In As Al P 
3 3 3 3 
direct
0.000000 0.000000 0.000000 In
0.500000 0.500000 0.182117 In
0.000000 0.000000 0.364234 In
0.500000 0.250000 0.000000 As
0.000000 0.750000 0.182117 As
0.500000 0.250000 0.364234 As
0.500000 0.500000 0.530917 Al
0.000000 0.000000 0.682117 Al
0.500000 0.500000 0.833317 Al
0.000000 0.750000 0.530917 P
0.500000 0.250000 0.682117 P
0.000000 0.750000 0.833317 P
