AlSb3InP3_110
1.0
4.186160 0.000000 0.000000
0.000000 5.920124 0.000000
0.000000 0.000000 12.723733
Al Sb In P 
3 3 3 3 
direct
0.000000 0.000000 0.000000 Al
0.500000 0.500000 0.171792 Al
0.000000 0.000000 0.343584 Al
0.500000 0.250000 0.000000 Sb
0.000000 0.750000 0.171792 Sb
0.500000 0.250000 0.343584 Sb
0.500000 0.500000 0.509695 In
0.000000 0.000000 0.671792 In
0.500000 0.500000 0.833889 In
0.000000 0.750000 0.509695 P
0.500000 0.250000 0.671792 P
0.000000 0.750000 0.833889 P
