GaSb3InP3_110
1.0
4.179894 0.000000 0.000000
0.000000 5.911263 0.000000
0.000000 0.000000 12.726862
Ga Sb In P 
3 3 3 3 
direct
0.000000 0.000000 0.000000 Ga
0.500000 0.500000 0.171570 Ga
0.000000 0.000000 0.343140 Ga
0.500000 0.250000 0.000000 Sb
0.000000 0.750000 0.171570 Sb
0.500000 0.250000 0.343140 Sb
0.500000 0.500000 0.509334 In
0.000000 0.000000 0.671570 In
0.500000 0.500000 0.833806 In
0.000000 0.750000 0.509334 P
0.500000 0.250000 0.671570 P
0.000000 0.750000 0.833806 P
