ZnTe3CdTe3_001
1.0
4.411259 0.000000 0.000000
0.000000 4.411259 0.000000
0.000000 0.000000 19.076507
Zn Te Cd 
3 6 3 
direct
0.000000 0.000000 0.000000 Zn
0.500000 0.500000 0.154615 Zn
0.000000 0.000000 0.309230 Zn
0.500000 0.000000 0.077308 Te
1.000000 0.500000 0.231923 Te
0.500000 0.000000 0.386538 Te
1.000000 0.500000 0.565256 Te
0.500000 0.000000 0.743974 Te
1.000000 0.500000 0.922692 Te
0.500000 0.500000 0.475897 Cd
0.000000 0.000000 0.654615 Cd
0.500000 0.500000 0.833333 Cd
