InAs3AlSb3_110
1.0
4.273360 0.000000 0.000000
0.000000 6.043444 0.000000
0.000000 0.000000 12.931027
In As Al Sb 
3 3 3 3 
direct
0.000000 0.000000 0.000000 In
0.500000 0.500000 0.166910 In
0.000000 0.000000 0.333820 In
0.500000 0.250000 0.000000 As
0.000000 0.750000 0.166910 As
0.500000 0.250000 0.333820 As
0.500000 0.500000 0.500033 Al
0.000000 0.000000 0.666910 Al
0.500000 0.500000 0.833787 Al
0.000000 0.750000 0.500033 Sb
0.500000 0.250000 0.666910 Sb
0.000000 0.750000 0.833787 Sb
