GaAs3InP3_110
1.0
4.051593 0.000000 0.000000
0.000000 5.729818 0.000000
0.000000 0.000000 12.265576
Ga As In P 
3 3 3 3 
direct
0.000000 0.000000 0.000000 Ga
0.500000 0.500000 0.161526 Ga
0.000000 0.000000 0.323052 Ga
0.500000 0.250000 0.000000 As
0.000000 0.750000 0.161526 As
0.500000 0.250000 0.323052 As
0.500000 0.500000 0.489386 In
0.000000 0.000000 0.661526 In
0.500000 0.500000 0.833665 In
0.000000 0.750000 0.489386 P
0.500000 0.250000 0.661526 P
0.000000 0.750000 0.833665 P
