InSb3AlP3_001
1.0
4.124474 0.000000 0.000000
0.000000 4.124474 0.000000
0.000000 0.000000 18.339274
In Sb Al P 
3 3 3 3 
direct
0.000000 0.000000 0.000000 In
0.500000 0.500000 0.195724 In
0.000000 0.000000 0.391449 In
0.500000 0.000000 0.097862 Sb
1.000000 0.500000 0.293586 Sb
0.500000 0.000000 0.489311 Sb
0.500000 0.500000 0.575528 Al
0.000000 0.000000 0.713081 Al
0.500000 0.500000 0.850634 Al
1.000000 0.500000 0.644304 P
0.500000 0.000000 0.781857 P
1.000000 0.500000 0.919410 P
