InAs3InP3_001
1.0
4.219653 0.000000 0.000000
0.000000 4.219653 0.000000
0.000000 0.000000 17.943807
In As P 
6 3 3 
direct
0.000000 0.000000 0.000000 In
0.500000 0.500000 0.172829 In
0.000000 0.000000 0.345657 In
0.500000 0.500000 0.518486 In
0.000000 0.000000 0.678991 In
0.500000 0.500000 0.839495 In
0.500000 0.000000 0.086414 As
1.000000 0.500000 0.259243 As
0.500000 0.000000 0.432072 As
1.000000 0.500000 0.598738 P
0.500000 0.000000 0.759243 P
1.000000 0.500000 0.919748 P
