AlAs3AlP3_001
1.0
3.918320 0.000000 0.000000
0.000000 3.918320 0.000000
0.000000 0.000000 16.599694
Al As P 
6 3 3 
direct
0.000000 0.000000 0.000000 Al
0.500000 0.500000 0.172979 Al
0.000000 0.000000 0.345958 Al
0.500000 0.500000 0.518937 Al
0.000000 0.000000 0.679291 Al
0.500000 0.500000 0.839646 Al
0.500000 0.000000 0.086489 As
1.000000 0.500000 0.259468 As
0.500000 0.000000 0.432447 As
1.000000 0.500000 0.599114 P
0.500000 0.000000 0.759468 P
1.000000 0.500000 0.919823 P
