InP3InAs3_001
1.0
4.219653 0.000000 0.000000
0.000000 4.219653 0.000000
0.000000 0.000000 17.943807
In P As 
6 3 3 
direct
0.000000 0.000000 0.000000 In
0.500000 0.500000 0.160505 In
0.000000 0.000000 0.321009 In
0.500000 0.500000 0.481514 In
0.000000 0.000000 0.654343 In
0.500000 0.500000 0.827171 In
0.500000 0.000000 0.080252 P
1.000000 0.500000 0.240757 P
0.500000 0.000000 0.401262 P
1.000000 0.500000 0.567928 As
0.500000 0.000000 0.740757 As
1.000000 0.500000 0.913586 As
