InAs3GaAs3_001
1.0
4.117916 0.000000 0.000000
0.000000 4.117916 0.000000
0.000000 0.000000 17.770191
In As Ga 
3 6 3 
direct
0.000000 0.000000 0.000000 In
0.500000 0.500000 0.178922 In
0.000000 0.000000 0.357844 In
0.500000 0.000000 0.089461 As
1.000000 0.500000 0.268383 As
0.500000 0.000000 0.447304 As
1.000000 0.500000 0.601716 As
0.500000 0.000000 0.756128 As
1.000000 0.500000 0.910539 As
0.500000 0.500000 0.524510 Ga
0.000000 0.000000 0.678922 Ga
0.500000 0.500000 0.833333 Ga
