InP3AlSb3_001
1.0
4.203157 0.000000 0.000000
0.000000 4.203157 0.000000
0.000000 0.000000 18.000547
In P Al Sb 
3 3 3 3 
direct
0.000000 0.000000 0.000000 In
0.500000 0.500000 0.160729 In
0.000000 0.000000 0.321458 In
0.500000 0.000000 0.080365 P
1.000000 0.500000 0.241094 P
0.500000 0.000000 0.401823 P
0.500000 0.500000 0.470417 Al
0.000000 0.000000 0.643037 Al
0.500000 0.500000 0.815656 Al
1.000000 0.500000 0.556727 Sb
0.500000 0.000000 0.729346 Sb
1.000000 0.500000 0.901965 Sb
