InSb3AlP3_110
1.0
4.151923 0.000000 0.000000
0.000000 5.871706 0.000000
0.000000 0.000000 12.802210
In Sb Al P 
3 3 3 3 
direct
0.000000 0.000000 0.000000 In
0.500000 0.500000 0.190681 In
0.000000 0.000000 0.381362 In
0.500000 0.250000 0.000000 Sb
0.000000 0.750000 0.190681 Sb
0.500000 0.250000 0.381362 Sb
0.500000 0.500000 0.548323 Al
0.000000 0.000000 0.690681 Al
0.500000 0.500000 0.833040 Al
0.000000 0.750000 0.548323 P
0.500000 0.250000 0.690681 P
0.000000 0.750000 0.833040 P
