InP3GaSb3_001
1.0
4.201526 0.000000 0.000000
0.000000 4.201526 0.000000
0.000000 0.000000 18.000278
In P Ga Sb 
3 3 3 3 
direct
0.000000 0.000000 0.000000 In
0.500000 0.500000 0.160804 In
0.000000 0.000000 0.321607 In
0.500000 0.000000 0.080402 P
1.000000 0.500000 0.241205 P
0.500000 0.000000 0.402009 P
0.500000 0.500000 0.470984 Ga
0.000000 0.000000 0.643362 Ga
0.500000 0.500000 0.815740 Ga
1.000000 0.500000 0.557173 Sb
0.500000 0.000000 0.729551 Sb
1.000000 0.500000 0.901929 Sb
