AlAs3AlSb3_001
1.0
4.121845 0.000000 0.000000
0.000000 4.121845 0.000000
0.000000 0.000000 17.737970
Al As Sb 
6 3 3 
direct
0.000000 0.000000 0.000000 Al
0.500000 0.500000 0.154950 Al
0.000000 0.000000 0.309900 Al
0.500000 0.500000 0.464849 Al
0.000000 0.000000 0.643233 Al
0.500000 0.500000 0.821616 Al
0.500000 0.000000 0.077475 As
1.000000 0.500000 0.232425 As
0.500000 0.000000 0.387375 As
1.000000 0.500000 0.554041 Sb
0.500000 0.000000 0.732425 Sb
1.000000 0.500000 0.910808 Sb
