GaAs3InAs3_110
1.0
4.124340 0.000000 0.000000
0.000000 5.832698 0.000000
0.000000 0.000000 12.498799
Ga As In 
3 6 3 
direct
0.000000 0.000000 0.000000 Ga
0.500000 0.500000 0.156824 Ga
0.000000 0.000000 0.313648 Ga
0.500000 0.250000 0.000000 As
0.000000 0.750000 0.156824 As
0.500000 0.250000 0.313648 As
0.000000 0.750000 0.480124 As
0.500000 0.250000 0.656824 As
0.000000 0.750000 0.833524 As
0.500000 0.500000 0.480124 In
0.000000 0.000000 0.656824 In
0.500000 0.500000 0.833524 In
