AlSb3AlP3_110
1.0
4.036165 0.000000 0.000000
0.000000 5.708000 0.000000
0.000000 0.000000 12.275347
Al Sb P 
6 3 3 
direct
0.000000 0.000000 0.000000 Al
0.500000 0.500000 0.181983 Al
0.000000 0.000000 0.363967 Al
0.500000 0.500000 0.530577 Al
0.000000 0.000000 0.681983 Al
0.500000 0.500000 0.833389 Al
0.500000 0.250000 0.000000 Sb
0.000000 0.750000 0.181983 Sb
0.500000 0.250000 0.363967 Sb
0.000000 0.750000 0.530577 P
0.500000 0.250000 0.681983 P
0.000000 0.750000 0.833389 P
