GaSb3InSb3_110
1.0
4.421937 0.000000 0.000000
0.000000 6.253563 0.000000
0.000000 0.000000 13.375663
Ga Sb In 
3 6 3 
direct
0.000000 0.000000 0.000000 Ga
0.500000 0.500000 0.158100 Ga
0.000000 0.000000 0.316199 Ga
0.500000 0.250000 0.000000 Sb
0.000000 0.750000 0.158100 Sb
0.500000 0.250000 0.316199 Sb
0.000000 0.750000 0.482639 Sb
0.500000 0.250000 0.658100 Sb
0.000000 0.750000 0.833561 Sb
0.500000 0.500000 0.482639 In
0.000000 0.000000 0.658100 In
0.500000 0.500000 0.833561 In
