GaAs3InSb3_110
1.0
4.243802 0.000000 0.000000
0.000000 6.001643 0.000000
0.000000 0.000000 13.002732
Ga As In Sb 
3 3 3 3 
direct
0.000000 0.000000 0.000000 Ga
0.500000 0.500000 0.148082 Ga
0.000000 0.000000 0.296164 Ga
0.500000 0.250000 0.000000 As
0.000000 0.750000 0.148082 As
0.500000 0.250000 0.296164 As
0.500000 0.500000 0.462807 In
0.000000 0.000000 0.648082 In
0.500000 0.500000 0.833356 In
0.000000 0.750000 0.462807 Sb
0.500000 0.250000 0.648082 Sb
0.000000 0.750000 0.833356 Sb
