GaP3GaSb3_001
1.0
4.029762 0.000000 0.000000
0.000000 4.029762 0.000000
0.000000 0.000000 17.419646
Ga P Sb 
6 3 3 
direct
0.000000 0.000000 0.000000 Ga
0.500000 0.500000 0.148865 Ga
0.000000 0.000000 0.297729 Ga
0.500000 0.500000 0.446594 Ga
0.000000 0.000000 0.631062 Ga
0.500000 0.500000 0.815531 Ga
0.500000 0.000000 0.074432 P
1.000000 0.500000 0.223297 P
0.500000 0.000000 0.372161 P
1.000000 0.500000 0.538828 Sb
0.500000 0.000000 0.723297 Sb
1.000000 0.500000 0.907766 Sb
