AlSb3GaSb3_110
1.0
4.299209 0.000000 0.000000
0.000000 6.080000 0.000000
0.000000 0.000000 12.897628
Al Sb Ga 
3 6 3 
direct
0.000000 0.000000 0.000000 Al
0.500000 0.500000 0.166667 Al
0.000000 0.000000 0.333333 Al
0.500000 0.250000 0.000000 Sb
0.000000 0.750000 0.166667 Sb
0.500000 0.250000 0.333333 Sb
0.000000 0.750000 0.500000 Sb
0.500000 0.250000 0.666667 Sb
0.000000 0.750000 0.833333 Sb
0.500000 0.500000 0.500000 Ga
0.000000 0.000000 0.666667 Ga
0.500000 0.500000 0.833333 Ga
