InP3AlAs3_110
1.0
4.057044 0.000000 0.000000
0.000000 5.737526 0.000000
0.000000 0.000000 12.253259
In P Al As 
3 3 3 3 
direct
0.000000 0.000000 0.000000 In
0.500000 0.500000 0.172151 In
0.000000 0.000000 0.344302 In
0.500000 0.250000 0.000000 P
0.000000 0.750000 0.172151 P
0.500000 0.250000 0.344302 P
0.500000 0.500000 0.510682 Al
0.000000 0.000000 0.672151 Al
0.500000 0.500000 0.833619 Al
0.000000 0.750000 0.510682 As
0.500000 0.250000 0.672151 As
0.000000 0.750000 0.833619 As
