AlSb3AlP3_001
1.0
4.033831 0.000000 0.000000
0.000000 4.033831 0.000000
0.000000 0.000000 17.428818
Al Sb P 
6 3 3 
direct
0.000000 0.000000 0.000000 Al
0.500000 0.500000 0.185083 Al
0.000000 0.000000 0.370166 Al
0.500000 0.500000 0.555248 Al
0.000000 0.000000 0.703499 Al
0.500000 0.500000 0.851749 Al
0.500000 0.000000 0.092541 Sb
1.000000 0.500000 0.277624 Sb
0.500000 0.000000 0.462707 Sb
1.000000 0.500000 0.629374 P
0.500000 0.000000 0.777624 P
1.000000 0.500000 0.925875 P
