CdTe3HgTe3_001
1.0
4.582052 0.000000 0.000000
0.000000 4.582052 0.000000
0.000000 0.000000 19.440000
Cd Te Hg 
3 6 3 
direct
0.000000 0.000000 0.000000 Cd
0.500000 0.500000 0.166667 Cd
0.000000 0.000000 0.333333 Cd
0.500000 0.000000 0.083333 Te
1.000000 0.500000 0.250000 Te
0.500000 0.000000 0.416667 Te
1.000000 0.500000 0.583333 Te
0.500000 0.000000 0.750000 Te
1.000000 0.500000 0.916667 Te
0.500000 0.500000 0.500000 Hg
0.000000 0.000000 0.666667 Hg
0.500000 0.500000 0.833333 Hg
