AlP3InP3_110
1.0
3.981805 0.000000 0.000000
0.000000 5.631123 0.000000
0.000000 0.000000 12.028669
Al P In 
3 6 3 
direct
0.000000 0.000000 0.000000 Al
0.500000 0.500000 0.155919 Al
0.000000 0.000000 0.311837 Al
0.500000 0.250000 0.000000 P
0.000000 0.750000 0.155919 P
0.500000 0.250000 0.311837 P
0.000000 0.750000 0.478280 P
0.500000 0.250000 0.655919 P
0.000000 0.750000 0.833558 P
0.500000 0.500000 0.478280 In
0.000000 0.000000 0.655919 In
0.500000 0.500000 0.833558 In
