AlP3InSb3_001
1.0
4.124474 0.000000 0.000000
0.000000 4.124474 0.000000
0.000000 0.000000 18.339274
Al P In Sb 
3 3 3 3 
direct
0.000000 0.000000 0.000000 Al
0.500000 0.500000 0.137553 Al
0.000000 0.000000 0.275106 Al
0.500000 0.000000 0.068776 P
1.000000 0.500000 0.206329 P
0.500000 0.000000 0.343882 P
0.500000 0.500000 0.424472 In
0.000000 0.000000 0.620196 In
0.500000 0.500000 0.815921 In
1.000000 0.500000 0.522334 Sb
0.500000 0.000000 0.718059 Sb
1.000000 0.500000 0.913783 Sb
