HgTe3ZnTe3_001
1.0
4.416383 0.000000 0.000000
0.000000 4.416383 0.000000
0.000000 0.000000 19.044639
Hg Te Zn 
3 6 3 
direct
0.000000 0.000000 0.000000 Hg
0.500000 0.500000 0.178677 Hg
0.000000 0.000000 0.357353 Hg
0.500000 0.000000 0.089338 Te
1.000000 0.500000 0.268015 Te
0.500000 0.000000 0.446692 Te
1.000000 0.500000 0.601348 Te
0.500000 0.000000 0.756005 Te
1.000000 0.500000 0.910662 Te
0.500000 0.500000 0.524020 Zn
0.000000 0.000000 0.678677 Zn
0.500000 0.500000 0.833333 Zn
