ZnTe3HgTe3_001
1.0
4.416383 0.000000 0.000000
0.000000 4.416383 0.000000
0.000000 0.000000 19.044639
Zn Te Hg 
3 6 3 
direct
0.000000 0.000000 0.000000 Zn
0.500000 0.500000 0.154657 Zn
0.000000 0.000000 0.309313 Zn
0.500000 0.000000 0.077328 Te
1.000000 0.500000 0.231985 Te
0.500000 0.000000 0.386642 Te
1.000000 0.500000 0.565318 Te
0.500000 0.000000 0.743995 Te
1.000000 0.500000 0.922672 Te
0.500000 0.500000 0.475980 Hg
0.000000 0.000000 0.654657 Hg
0.500000 0.500000 0.833333 Hg
