AlSb3AlAs3_001
1.0
4.121845 0.000000 0.000000
0.000000 4.121845 0.000000
0.000000 0.000000 17.737970
Al Sb As 
6 3 3 
direct
0.000000 0.000000 0.000000 Al
0.500000 0.500000 0.178384 Al
0.000000 0.000000 0.356767 Al
0.500000 0.500000 0.535151 Al
0.000000 0.000000 0.690100 Al
0.500000 0.500000 0.845050 Al
0.500000 0.000000 0.089192 Sb
1.000000 0.500000 0.267575 Sb
0.500000 0.000000 0.445959 Sb
1.000000 0.500000 0.612625 As
0.500000 0.000000 0.767575 As
1.000000 0.500000 0.922525 As
