GaSb3AlAs3_110
1.0
4.131015 0.000000 0.000000
0.000000 5.842138 0.000000
0.000000 0.000000 12.463425
Ga Sb Al As 
3 3 3 3 
direct
0.000000 0.000000 0.000000 Ga
0.500000 0.500000 0.176312 Ga
0.000000 0.000000 0.352625 Ga
0.500000 0.250000 0.000000 Sb
0.000000 0.750000 0.176312 Sb
0.500000 0.250000 0.352625 Sb
0.500000 0.500000 0.519395 Al
0.000000 0.000000 0.676312 Al
0.500000 0.500000 0.833230 Al
0.000000 0.750000 0.519395 As
0.500000 0.250000 0.676312 As
0.000000 0.750000 0.833230 As
