InP3InSb3_110
1.0
4.330087 0.000000 0.000000
0.000000 6.123667 0.000000
0.000000 0.000000 13.170485
In P Sb 
6 3 3 
direct
0.000000 0.000000 0.000000 In
0.500000 0.500000 0.152626 In
0.000000 0.000000 0.305252 In
0.500000 0.500000 0.471998 In
0.000000 0.000000 0.652626 In
0.500000 0.500000 0.833254 In
0.500000 0.250000 0.000000 P
0.000000 0.750000 0.152626 P
0.500000 0.250000 0.305252 P
0.000000 0.750000 0.471998 Sb
0.500000 0.250000 0.652626 Sb
0.000000 0.750000 0.833254 Sb
