HgTe3CdTe3_110
1.0
4.582052 0.000000 0.000000
0.000000 6.480000 0.000000
0.000000 0.000000 13.746156
Hg Te Cd 
3 6 3 
direct
0.000000 0.000000 0.000000 Hg
0.500000 0.500000 0.166667 Hg
0.000000 0.000000 0.333333 Hg
0.500000 0.250000 0.000000 Te
0.000000 0.750000 0.166667 Te
0.500000 0.250000 0.333333 Te
0.000000 0.750000 0.500000 Te
0.500000 0.250000 0.666667 Te
0.000000 0.750000 0.833333 Te
0.500000 0.500000 0.500000 Cd
0.000000 0.000000 0.666667 Cd
0.500000 0.500000 0.833333 Cd
