AlSb3InAs3_110
1.0
4.273360 0.000000 0.000000
0.000000 6.043444 0.000000
0.000000 0.000000 12.931027
Al Sb In As 
3 3 3 3 
direct
0.000000 0.000000 0.000000 Al
0.500000 0.500000 0.166877 Al
0.000000 0.000000 0.333754 Al
0.500000 0.250000 0.000000 Sb
0.000000 0.750000 0.166877 Sb
0.500000 0.250000 0.333754 Sb
0.500000 0.500000 0.499967 In
0.000000 0.000000 0.666877 In
0.500000 0.500000 0.833787 In
0.000000 0.750000 0.499967 As
0.500000 0.250000 0.666877 As
0.000000 0.750000 0.833787 As
