ZnTe3HgTe3_110
1.0
4.428146 0.000000 0.000000
0.000000 6.262344 0.000000
0.000000 0.000000 13.381728
Zn Te Hg 
3 6 3 
direct
0.000000 0.000000 0.000000 Zn
0.500000 0.500000 0.157019 Zn
0.000000 0.000000 0.314038 Zn
0.500000 0.250000 0.000000 Te
0.000000 0.750000 0.157019 Te
0.500000 0.250000 0.314038 Te
0.000000 0.750000 0.480356 Te
0.500000 0.250000 0.657019 Te
0.000000 0.750000 0.833682 Te
0.500000 0.500000 0.480356 Hg
0.000000 0.000000 0.657019 Hg
0.500000 0.500000 0.833682 Hg
