GaSb3AlP3_110
1.0
4.035458 0.000000 0.000000
0.000000 5.706999 0.000000
0.000000 0.000000 12.256612
Ga Sb Al P 
3 3 3 3 
direct
0.000000 0.000000 0.000000 Ga
0.500000 0.500000 0.181505 Ga
0.000000 0.000000 0.363011 Ga
0.500000 0.250000 0.000000 Sb
0.000000 0.750000 0.181505 Sb
0.500000 0.250000 0.363011 Sb
0.500000 0.500000 0.529850 Al
0.000000 0.000000 0.681505 Al
0.500000 0.500000 0.833161 Al
0.000000 0.750000 0.529850 P
0.500000 0.250000 0.681505 P
0.000000 0.750000 0.833161 P
