InP3AlP3_110
1.0
3.981805 0.000000 0.000000
0.000000 5.631123 0.000000
0.000000 0.000000 12.028669
In P Al 
3 6 3 
direct
0.000000 0.000000 0.000000 In
0.500000 0.500000 0.177639 In
0.000000 0.000000 0.355278 In
0.500000 0.250000 0.000000 P
0.000000 0.750000 0.177639 P
0.500000 0.250000 0.355278 P
0.000000 0.750000 0.521720 P
0.500000 0.250000 0.677639 P
0.000000 0.750000 0.833558 P
0.500000 0.500000 0.521720 Al
0.000000 0.000000 0.677639 Al
0.500000 0.500000 0.833558 Al
