AlSb3InSb3_001
1.0
4.421557 0.000000 0.000000
0.000000 4.421557 0.000000
0.000000 0.000000 18.950755
Al Sb In 
3 6 3 
direct
0.000000 0.000000 0.000000 Al
0.500000 0.500000 0.155896 Al
0.000000 0.000000 0.311793 Al
0.500000 0.000000 0.077948 Sb
1.000000 0.500000 0.233844 Sb
0.500000 0.000000 0.389741 Sb
1.000000 0.500000 0.567178 Sb
0.500000 0.000000 0.744615 Sb
1.000000 0.500000 0.922052 Sb
0.500000 0.500000 0.478459 In
0.000000 0.000000 0.655896 In
0.500000 0.500000 0.833333 In
