AlSb3GaAs3_110
1.0
4.128724 0.000000 0.000000
0.000000 5.838897 0.000000
0.000000 0.000000 12.484290
Al Sb Ga As 
3 3 3 3 
direct
0.000000 0.000000 0.000000 Al
0.500000 0.500000 0.176562 Al
0.000000 0.000000 0.353123 Al
0.500000 0.250000 0.000000 Sb
0.000000 0.750000 0.176562 Sb
0.500000 0.250000 0.353123 Sb
0.500000 0.500000 0.519657 Ga
0.000000 0.000000 0.676562 Ga
0.500000 0.500000 0.833466 Ga
0.000000 0.750000 0.519657 As
0.500000 0.250000 0.676562 As
0.000000 0.750000 0.833466 As
