InAs3AlP3_001
1.0
4.029097 0.000000 0.000000
0.000000 4.029097 0.000000
0.000000 0.000000 17.505296
In As Al P 
3 3 3 3 
direct
0.000000 0.000000 0.000000 In
0.500000 0.500000 0.185533 In
0.000000 0.000000 0.371066 In
0.500000 0.000000 0.092766 As
1.000000 0.500000 0.278299 As
0.500000 0.000000 0.463832 As
0.500000 0.500000 0.543936 Al
0.000000 0.000000 0.691722 Al
0.500000 0.500000 0.839507 Al
1.000000 0.500000 0.617829 P
0.500000 0.000000 0.765614 P
1.000000 0.500000 0.913400 P
