AlP3GaAs3_110
1.0
3.914703 0.000000 0.000000
0.000000 5.536226 0.000000
0.000000 0.000000 11.753549
Al P Ga As 
3 3 3 3 
direct
0.000000 0.000000 0.000000 Al
0.500000 0.500000 0.161347 Al
0.000000 0.000000 0.322694 Al
0.500000 0.250000 0.000000 P
0.000000 0.750000 0.161347 P
0.500000 0.250000 0.322694 P
0.500000 0.500000 0.489407 Ga
0.000000 0.000000 0.661347 Ga
0.500000 0.500000 0.833287 Ga
0.000000 0.750000 0.489407 As
0.500000 0.250000 0.661347 As
0.000000 0.750000 0.833287 As
