ZnS3ZnSe3_110
1.0
3.900141 0.000000 0.000000
0.000000 5.515633 0.000000
0.000000 0.000000 11.726834
Zn S Se 
6 3 3 
direct
0.000000 0.000000 0.000000 Zn
0.500000 0.500000 0.159967 Zn
0.000000 0.000000 0.319935 Zn
0.500000 0.500000 0.486724 Zn
0.000000 0.000000 0.659967 Zn
0.500000 0.500000 0.833210 Zn
0.500000 0.250000 0.000000 S
0.000000 0.750000 0.159967 S
0.500000 0.250000 0.319935 S
0.000000 0.750000 0.486724 Se
0.500000 0.250000 0.659967 Se
0.000000 0.750000 0.833210 Se
