AlAs3InAs3_001
1.0
4.114147 0.000000 0.000000
0.000000 4.114147 0.000000
0.000000 0.000000 17.806555
Al As In 
3 6 3 
direct
0.000000 0.000000 0.000000 Al
0.500000 0.500000 0.154614 Al
0.000000 0.000000 0.309228 Al
0.500000 0.000000 0.077307 As
1.000000 0.500000 0.231921 As
0.500000 0.000000 0.386535 As
1.000000 0.500000 0.565254 As
0.500000 0.000000 0.743974 As
1.000000 0.500000 0.922693 As
0.500000 0.500000 0.475895 In
0.000000 0.000000 0.654614 In
0.500000 0.500000 0.833333 In
