InAs3InSb3_110
1.0
4.427069 0.000000 0.000000
0.000000 6.260821 0.000000
0.000000 0.000000 13.353196
In As Sb 
6 3 3 
direct
0.000000 0.000000 0.000000 In
0.500000 0.500000 0.157754 In
0.000000 0.000000 0.315507 In
0.500000 0.500000 0.482132 In
0.000000 0.000000 0.657754 In
0.500000 0.500000 0.833376 In
0.500000 0.250000 0.000000 As
0.000000 0.750000 0.157754 As
0.500000 0.250000 0.315507 As
0.000000 0.750000 0.482132 Sb
0.500000 0.250000 0.657754 Sb
0.000000 0.750000 0.833376 Sb
