GaP3GaSb3_110
1.0
4.029327 0.000000 0.000000
0.000000 5.698329 0.000000
0.000000 0.000000 12.278299
Ga P Sb 
6 3 3 
direct
0.000000 0.000000 0.000000 Ga
0.500000 0.500000 0.152038 Ga
0.000000 0.000000 0.304075 Ga
0.500000 0.500000 0.470711 Ga
0.000000 0.000000 0.652038 Ga
0.500000 0.500000 0.833365 Ga
0.500000 0.250000 0.000000 P
0.000000 0.750000 0.152038 P
0.500000 0.250000 0.304075 P
0.000000 0.750000 0.470711 Sb
0.500000 0.250000 0.652038 Sb
0.000000 0.750000 0.833365 Sb
