AlAs3GaP3_001
1.0
3.914513 0.000000 0.000000
0.000000 3.914513 0.000000
0.000000 0.000000 16.623076
Al As Ga P 
3 3 3 3 
direct
0.000000 0.000000 0.000000 Al
0.500000 0.500000 0.172874 Al
0.000000 0.000000 0.345748 Al
0.500000 0.000000 0.086437 As
1.000000 0.500000 0.259311 As
0.500000 0.000000 0.432185 As
0.500000 0.500000 0.518759 Ga
0.000000 0.000000 0.679199 Ga
0.500000 0.500000 0.839638 Ga
1.000000 0.500000 0.598979 P
0.500000 0.000000 0.759419 P
1.000000 0.500000 0.919858 P
