GaSb3AlP3_001
1.0
4.038352 0.000000 0.000000
0.000000 4.038352 0.000000
0.000000 0.000000 17.376717
Ga Sb Al P 
3 3 3 3 
direct
0.000000 0.000000 0.000000 Ga
0.500000 0.500000 0.184606 Ga
0.000000 0.000000 0.369213 Ga
0.500000 0.000000 0.092303 Sb
1.000000 0.500000 0.276910 Sb
0.500000 0.000000 0.461516 Sb
0.500000 0.500000 0.554244 Al
0.000000 0.000000 0.702763 Al
0.500000 0.500000 0.851282 Al
1.000000 0.500000 0.628503 P
0.500000 0.000000 0.777023 P
1.000000 0.500000 0.925542 P
