GaSb3GaAs3_001
1.0
4.130931 0.000000 0.000000
0.000000 4.130931 0.000000
0.000000 0.000000 17.650826
Ga Sb As 
6 3 3 
direct
0.000000 0.000000 0.000000 Ga
0.500000 0.500000 0.178365 Ga
0.000000 0.000000 0.356729 Ga
0.500000 0.500000 0.535094 Ga
0.000000 0.000000 0.690062 Ga
0.500000 0.500000 0.845031 Ga
0.500000 0.000000 0.089182 Sb
1.000000 0.500000 0.267547 Sb
0.500000 0.000000 0.445911 Sb
1.000000 0.500000 0.612578 As
0.500000 0.000000 0.767547 As
1.000000 0.500000 0.922516 As
