GaAs3GaSb3_110
1.0
4.129833 0.000000 0.000000
0.000000 5.840465 0.000000
0.000000 0.000000 12.469772
Ga As Sb 
6 3 3 
direct
0.000000 0.000000 0.000000 Ga
0.500000 0.500000 0.157061 Ga
0.000000 0.000000 0.314123 Ga
0.500000 0.500000 0.480812 Ga
0.000000 0.000000 0.657061 Ga
0.500000 0.500000 0.833311 Ga
0.500000 0.250000 0.000000 As
0.000000 0.750000 0.157061 As
0.500000 0.250000 0.314123 As
0.000000 0.750000 0.480812 Sb
0.500000 0.250000 0.657061 Sb
0.000000 0.750000 0.833311 Sb
