AlAs3GaSb3_001
1.0
4.126836 0.000000 0.000000
0.000000 4.126836 0.000000
0.000000 0.000000 17.690343
Al As Ga Sb 
3 3 3 3 
direct
0.000000 0.000000 0.000000 Al
0.500000 0.500000 0.155197 Al
0.000000 0.000000 0.310393 Al
0.500000 0.000000 0.077598 As
1.000000 0.500000 0.232795 As
0.500000 0.000000 0.387991 As
0.500000 0.500000 0.465379 Ga
0.000000 0.000000 0.643494 Ga
0.500000 0.500000 0.821609 Ga
1.000000 0.500000 0.554437 Sb
0.500000 0.000000 0.732552 Sb
1.000000 0.500000 0.910667 Sb
