InSb3InP3_001
1.0
4.333273 0.000000 0.000000
0.000000 4.333273 0.000000
0.000000 0.000000 18.658515
In Sb P 
6 3 3 
direct
0.000000 0.000000 0.000000 In
0.500000 0.500000 0.183830 In
0.000000 0.000000 0.367659 In
0.500000 0.500000 0.551489 In
0.000000 0.000000 0.700992 In
0.500000 0.500000 0.850496 In
0.500000 0.000000 0.091915 Sb
1.000000 0.500000 0.275744 Sb
0.500000 0.000000 0.459574 Sb
1.000000 0.500000 0.626240 P
0.500000 0.000000 0.775744 P
1.000000 0.500000 0.925248 P
