InSb3AlSb3_110
1.0
4.425095 0.000000 0.000000
0.000000 6.258029 0.000000
0.000000 0.000000 13.361156
In Sb Al 
3 6 3 
direct
0.000000 0.000000 0.000000 In
0.500000 0.500000 0.175569 In
0.000000 0.000000 0.351138 In
0.500000 0.250000 0.000000 Sb
0.000000 0.750000 0.175569 Sb
0.500000 0.250000 0.351138 Sb
0.000000 0.750000 0.517704 Sb
0.500000 0.250000 0.675569 Sb
0.000000 0.750000 0.833434 Sb
0.500000 0.500000 0.517704 Al
0.000000 0.000000 0.675569 Al
0.500000 0.500000 0.833434 Al
