CdTe3ZnTe3_110
1.0
4.422669 0.000000 0.000000
0.000000 6.254599 0.000000
0.000000 0.000000 13.399904
Cd Te Zn 
3 6 3 
direct
0.000000 0.000000 0.000000 Cd
0.500000 0.500000 0.176766 Cd
0.000000 0.000000 0.353532 Cd
0.500000 0.250000 0.000000 Te
0.000000 0.750000 0.176766 Te
0.500000 0.250000 0.353532 Te
0.000000 0.750000 0.519806 Te
0.500000 0.250000 0.676766 Te
0.000000 0.750000 0.833726 Te
0.500000 0.500000 0.519806 Zn
0.000000 0.000000 0.676766 Zn
0.500000 0.500000 0.833726 Zn
