InAs3GaSb3_001
1.0
4.283436 0.000000 0.000000
0.000000 4.283436 0.000000
0.000000 0.000000 18.307038
In As Ga Sb 
3 3 3 3 
direct
0.000000 0.000000 0.000000 In
0.500000 0.500000 0.166719 In
0.000000 0.000000 0.333438 In
0.500000 0.000000 0.083360 As
1.000000 0.500000 0.250079 As
0.500000 0.000000 0.416798 As
0.500000 0.500000 0.488754 Ga
0.000000 0.000000 0.655365 Ga
0.500000 0.500000 0.821976 Ga
1.000000 0.500000 0.572060 Sb
0.500000 0.000000 0.738670 Sb
1.000000 0.500000 0.905281 Sb
