GaP3AlAs3_001
1.0
3.914513 0.000000 0.000000
0.000000 3.914513 0.000000
0.000000 0.000000 16.623076
Ga P Al As 
3 3 3 3 
direct
0.000000 0.000000 0.000000 Ga
0.500000 0.500000 0.160440 Ga
0.000000 0.000000 0.320879 Ga
0.500000 0.000000 0.080220 P
1.000000 0.500000 0.240660 P
0.500000 0.000000 0.401099 P
0.500000 0.500000 0.481241 Al
0.000000 0.000000 0.654115 Al
0.500000 0.500000 0.826989 Al
1.000000 0.500000 0.567678 As
0.500000 0.000000 0.740552 As
1.000000 0.500000 0.913426 As
