AlP3GaSb3_001
1.0
4.038352 0.000000 0.000000
0.000000 4.038352 0.000000
0.000000 0.000000 17.376717
Al P Ga Sb 
3 3 3 3 
direct
0.000000 0.000000 0.000000 Al
0.500000 0.500000 0.148519 Al
0.000000 0.000000 0.297039 Al
0.500000 0.000000 0.074260 P
1.000000 0.500000 0.222779 P
0.500000 0.000000 0.371298 P
0.500000 0.500000 0.445756 Ga
0.000000 0.000000 0.630363 Ga
0.500000 0.500000 0.814969 Ga
1.000000 0.500000 0.538059 Sb
0.500000 0.000000 0.722666 Sb
1.000000 0.500000 0.907272 Sb
