InAs3GaP3_001
1.0
4.019210 0.000000 0.000000
0.000000 4.019210 0.000000
0.000000 0.000000 17.562807
In As Ga P 
3 3 3 3 
direct
0.000000 0.000000 0.000000 In
0.500000 0.500000 0.185358 In
0.000000 0.000000 0.370717 In
0.500000 0.000000 0.092679 As
1.000000 0.500000 0.278037 As
0.500000 0.000000 0.463396 As
0.500000 0.500000 0.543369 Ga
0.000000 0.000000 0.691405 Ga
0.500000 0.500000 0.839441 Ga
1.000000 0.500000 0.617387 P
0.500000 0.000000 0.765423 P
1.000000 0.500000 0.913459 P
