InSb3AlAs3_001
1.0
4.216586 0.000000 0.000000
0.000000 4.216586 0.000000
0.000000 0.000000 18.626656
In Sb Al As 
3 3 3 3 
direct
0.000000 0.000000 0.000000 In
0.500000 0.500000 0.188928 In
0.000000 0.000000 0.377856 In
0.500000 0.000000 0.094464 Sb
1.000000 0.500000 0.283392 Sb
0.500000 0.000000 0.472320 Sb
0.500000 0.500000 0.555476 Al
0.000000 0.000000 0.699962 Al
0.500000 0.500000 0.844447 Al
1.000000 0.500000 0.627719 As
0.500000 0.000000 0.772205 As
1.000000 0.500000 0.916690 As
