AlP3AlSb3_110
1.0
4.036165 0.000000 0.000000
0.000000 5.708000 0.000000
0.000000 0.000000 12.275347
Al P Sb 
6 3 3 
direct
0.000000 0.000000 0.000000 Al
0.500000 0.500000 0.151406 Al
0.000000 0.000000 0.302812 Al
0.500000 0.500000 0.469423 Al
0.000000 0.000000 0.651406 Al
0.500000 0.500000 0.833389 Al
0.500000 0.250000 0.000000 P
0.000000 0.750000 0.151406 P
0.500000 0.250000 0.302812 P
0.000000 0.750000 0.469423 Sb
0.500000 0.250000 0.651406 Sb
0.000000 0.750000 0.833389 Sb
