ZnS3ZnTe3_001
1.0
4.034824 0.000000 0.000000
0.000000 4.034824 0.000000
0.000000 0.000000 17.287459
Zn S Te 
6 3 3 
direct
0.000000 0.000000 0.000000 Zn
0.500000 0.500000 0.145134 Zn
0.000000 0.000000 0.290267 Zn
0.500000 0.500000 0.435401 Zn
0.000000 0.000000 0.623601 Zn
0.500000 0.500000 0.811800 Zn
0.500000 0.000000 0.072567 S
1.000000 0.500000 0.217700 S
0.500000 0.000000 0.362834 S
1.000000 0.500000 0.529501 Te
0.500000 0.000000 0.717700 Te
1.000000 0.500000 0.905900 Te
