ZnTe3ZnS3_001
1.0
4.034824 0.000000 0.000000
0.000000 4.034824 0.000000
0.000000 0.000000 17.287459
Zn Te S 
6 3 3 
direct
0.000000 0.000000 0.000000 Zn
0.500000 0.500000 0.188200 Zn
0.000000 0.000000 0.376399 Zn
0.500000 0.500000 0.564599 Zn
0.000000 0.000000 0.709733 Zn
0.500000 0.500000 0.854866 Zn
0.500000 0.000000 0.094100 Te
1.000000 0.500000 0.282300 Te
0.500000 0.000000 0.470499 Te
1.000000 0.500000 0.637166 S
0.500000 0.000000 0.782300 S
1.000000 0.500000 0.927433 S
