InAs3GaAs3_110
1.0
4.124340 0.000000 0.000000
0.000000 5.832698 0.000000
0.000000 0.000000 12.498799
In As Ga 
3 6 3 
direct
0.000000 0.000000 0.000000 In
0.500000 0.500000 0.176700 In
0.000000 0.000000 0.353400 In
0.500000 0.250000 0.000000 As
0.000000 0.750000 0.176700 As
0.500000 0.250000 0.353400 As
0.000000 0.750000 0.519876 As
0.500000 0.250000 0.676700 As
0.000000 0.750000 0.833524 As
0.500000 0.500000 0.519876 Ga
0.000000 0.000000 0.676700 Ga
0.500000 0.500000 0.833524 Ga
