AlAs3InSb3_001
1.0
4.216586 0.000000 0.000000
0.000000 4.216586 0.000000
0.000000 0.000000 18.626656
Al As In Sb 
3 3 3 3 
direct
0.000000 0.000000 0.000000 Al
0.500000 0.500000 0.144486 Al
0.000000 0.000000 0.288971 Al
0.500000 0.000000 0.072243 As
1.000000 0.500000 0.216728 As
0.500000 0.000000 0.361214 As
0.500000 0.500000 0.444524 In
0.000000 0.000000 0.633452 In
0.500000 0.500000 0.822380 In
1.000000 0.500000 0.538988 Sb
0.500000 0.000000 0.727916 Sb
1.000000 0.500000 0.916844 Sb
