AlAs3AlP3_110
1.0
3.914921 0.000000 0.000000
0.000000 5.536535 0.000000
0.000000 0.000000 11.756124
Al As P 
6 3 3 
direct
0.000000 0.000000 0.000000 Al
0.500000 0.500000 0.172020 Al
0.000000 0.000000 0.344040 Al
0.500000 0.500000 0.510714 Al
0.000000 0.000000 0.672020 Al
0.500000 0.500000 0.833326 Al
0.500000 0.250000 0.000000 As
0.000000 0.750000 0.172020 As
0.500000 0.250000 0.344040 As
0.000000 0.750000 0.510714 P
0.500000 0.250000 0.672020 P
0.000000 0.750000 0.833326 P
