AlSb3GaP3_001
1.0
4.025199 0.000000 0.000000
0.000000 4.025199 0.000000
0.000000 0.000000 17.472761
Al Sb Ga P 
3 3 3 3 
direct
0.000000 0.000000 0.000000 Al
0.500000 0.500000 0.184963 Al
0.000000 0.000000 0.369926 Al
0.500000 0.000000 0.092482 Sb
1.000000 0.500000 0.277445 Sb
0.500000 0.000000 0.462408 Sb
0.500000 0.500000 0.554446 Ga
0.000000 0.000000 0.703025 Ga
0.500000 0.500000 0.851605 Ga
1.000000 0.500000 0.628736 P
0.500000 0.000000 0.777315 P
1.000000 0.500000 0.925894 P
