AlP3GaAs3_001
1.0
3.915929 0.000000 0.000000
0.000000 3.915929 0.000000
0.000000 0.000000 16.621399
Al P Ga As 
3 3 3 3 
direct
0.000000 0.000000 0.000000 Al
0.500000 0.500000 0.160242 Al
0.000000 0.000000 0.320484 Al
0.500000 0.000000 0.080121 P
1.000000 0.500000 0.240363 P
0.500000 0.000000 0.400605 P
0.500000 0.500000 0.480806 Ga
0.000000 0.000000 0.653916 Ga
0.500000 0.500000 0.827025 Ga
1.000000 0.500000 0.567361 As
0.500000 0.000000 0.740470 As
1.000000 0.500000 0.913580 As
