InSb3GaSb3_001
1.0
4.416716 0.000000 0.000000
0.000000 4.416716 0.000000
0.000000 0.000000 18.991954
In Sb Ga 
3 6 3 
direct
0.000000 0.000000 0.000000 In
0.500000 0.500000 0.177247 In
0.000000 0.000000 0.354494 In
0.500000 0.000000 0.088623 Sb
1.000000 0.500000 0.265870 Sb
0.500000 0.000000 0.443117 Sb
1.000000 0.500000 0.599204 Sb
0.500000 0.000000 0.755290 Sb
1.000000 0.500000 0.911377 Sb
0.500000 0.500000 0.521160 Ga
0.000000 0.000000 0.677247 Ga
0.500000 0.500000 0.833333 Ga
