ZnSe3ZnS3_110
1.0
3.900141 0.000000 0.000000
0.000000 5.515633 0.000000
0.000000 0.000000 11.726834
Zn Se S 
6 3 3 
direct
0.000000 0.000000 0.000000 Zn
0.500000 0.500000 0.173243 Zn
0.000000 0.000000 0.346486 Zn
0.500000 0.500000 0.513276 Zn
0.000000 0.000000 0.673243 Zn
0.500000 0.500000 0.833210 Zn
0.500000 0.250000 0.000000 Se
0.000000 0.750000 0.173243 Se
0.500000 0.250000 0.346486 Se
0.000000 0.750000 0.513276 S
0.500000 0.250000 0.673243 S
0.000000 0.750000 0.833210 S
