AlP3AlAs3_001
1.0
3.918320 0.000000 0.000000
0.000000 3.918320 0.000000
0.000000 0.000000 16.599694
Al P As 
6 3 3 
direct
0.000000 0.000000 0.000000 Al
0.500000 0.500000 0.160354 Al
0.000000 0.000000 0.320709 Al
0.500000 0.500000 0.481063 Al
0.000000 0.000000 0.654042 Al
0.500000 0.500000 0.827021 Al
0.500000 0.000000 0.080177 P
1.000000 0.500000 0.240532 P
0.500000 0.000000 0.400886 P
1.000000 0.500000 0.567553 As
0.500000 0.000000 0.740532 As
1.000000 0.500000 0.913511 As
