GaAs3AlP3_110
1.0
3.914703 0.000000 0.000000
0.000000 5.536226 0.000000
0.000000 0.000000 11.753549
Ga As Al P 
3 3 3 3 
direct
0.000000 0.000000 0.000000 Ga
0.500000 0.500000 0.171940 Ga
0.000000 0.000000 0.343880 Ga
0.500000 0.250000 0.000000 As
0.000000 0.750000 0.171940 As
0.500000 0.250000 0.343880 As
0.500000 0.500000 0.510593 Al
0.000000 0.000000 0.671940 Al
0.500000 0.500000 0.833287 Al
0.000000 0.750000 0.510593 P
0.500000 0.250000 0.671940 P
0.000000 0.750000 0.833287 P
