AlAs3GaAs3_001
1.0
3.995153 0.000000 0.000000
0.000000 3.995153 0.000000
0.000000 0.000000 16.950000
Al As Ga 
3 6 3 
direct
0.000000 0.000000 0.000000 Al
0.500000 0.500000 0.166667 Al
0.000000 0.000000 0.333333 Al
0.500000 0.000000 0.083333 As
1.000000 0.500000 0.250000 As
0.500000 0.000000 0.416667 As
1.000000 0.500000 0.583333 As
0.500000 0.000000 0.750000 As
1.000000 0.500000 0.916667 As
0.500000 0.500000 0.500000 Ga
0.000000 0.000000 0.666667 Ga
0.500000 0.500000 0.833333 Ga
