InAs3GaP3_110
1.0
4.036354 0.000000 0.000000
0.000000 5.708266 0.000000
0.000000 0.000000 12.302814
In As Ga P 
3 3 3 3 
direct
0.000000 0.000000 0.000000 In
0.500000 0.500000 0.181925 In
0.000000 0.000000 0.363850 In
0.500000 0.250000 0.000000 As
0.000000 0.750000 0.181925 As
0.500000 0.250000 0.363850 As
0.500000 0.500000 0.530350 Ga
0.000000 0.000000 0.681925 Ga
0.500000 0.500000 0.833500 Ga
0.000000 0.750000 0.530350 P
0.500000 0.250000 0.681925 P
0.000000 0.750000 0.833500 P
