InAs3AlAs3_110
1.0
4.127792 0.000000 0.000000
0.000000 5.837579 0.000000
0.000000 0.000000 12.487880
In As Al 
3 6 3 
direct
0.000000 0.000000 0.000000 In
0.500000 0.500000 0.176761 In
0.000000 0.000000 0.353522 In
0.500000 0.250000 0.000000 As
0.000000 0.750000 0.176761 As
0.500000 0.250000 0.353522 As
0.000000 0.750000 0.520071 As
0.500000 0.250000 0.676761 As
0.000000 0.750000 0.833451 As
0.500000 0.500000 0.520071 Al
0.000000 0.000000 0.676761 Al
0.500000 0.500000 0.833451 Al
