AlAs3GaP3_110
1.0
3.912729 0.000000 0.000000
0.000000 5.533434 0.000000
0.000000 0.000000 11.764796
Al As Ga P 
3 3 3 3 
direct
0.000000 0.000000 0.000000 Al
0.500000 0.500000 0.171951 Al
0.000000 0.000000 0.343901 Al
0.500000 0.250000 0.000000 As
0.000000 0.750000 0.171951 As
0.500000 0.250000 0.343901 As
0.500000 0.500000 0.510507 Ga
0.000000 0.000000 0.671951 Ga
0.500000 0.500000 0.833394 Ga
0.000000 0.750000 0.510507 P
0.500000 0.250000 0.671951 P
0.000000 0.750000 0.833394 P
