AlAs3InP3_001
1.0
4.055262 0.000000 0.000000
0.000000 4.055262 0.000000
0.000000 0.000000 17.397947
Al As In P 
3 3 3 3 
direct
0.000000 0.000000 0.000000 Al
0.500000 0.500000 0.160289 Al
0.000000 0.000000 0.320578 Al
0.500000 0.000000 0.080145 As
1.000000 0.500000 0.240434 As
0.500000 0.000000 0.400723 As
0.500000 0.500000 0.493483 In
0.000000 0.000000 0.666554 In
0.500000 0.500000 0.839624 In
1.000000 0.500000 0.580018 P
0.500000 0.000000 0.753089 P
1.000000 0.500000 0.926159 P
