AlAs3InAs3_110
1.0
4.127792 0.000000 0.000000
0.000000 5.837579 0.000000
0.000000 0.000000 12.487880
Al As In 
3 6 3 
direct
0.000000 0.000000 0.000000 Al
0.500000 0.500000 0.156690 Al
0.000000 0.000000 0.313380 Al
0.500000 0.250000 0.000000 As
0.000000 0.750000 0.156690 As
0.500000 0.250000 0.313380 As
0.000000 0.750000 0.479929 As
0.500000 0.250000 0.656690 As
0.000000 0.750000 0.833451 As
0.500000 0.500000 0.479929 In
0.000000 0.000000 0.656690 In
0.500000 0.500000 0.833451 In
