GaP3InP3_110
1.0
3.973635 0.000000 0.000000
0.000000 5.619569 0.000000
0.000000 0.000000 12.053103
Ga P In 
3 6 3 
direct
0.000000 0.000000 0.000000 Ga
0.500000 0.500000 0.156170 Ga
0.000000 0.000000 0.312339 Ga
0.500000 0.250000 0.000000 P
0.000000 0.750000 0.156170 P
0.500000 0.250000 0.312339 P
0.000000 0.750000 0.478645 P
0.500000 0.250000 0.656170 P
0.000000 0.750000 0.833695 P
0.500000 0.500000 0.478645 In
0.000000 0.000000 0.656170 In
0.500000 0.500000 0.833695 In
