ZnSe3ZnTe3_110
1.0
4.137217 0.000000 0.000000
0.000000 5.850909 0.000000
0.000000 0.000000 12.468791
Zn Se Te 
6 3 3 
direct
0.000000 0.000000 0.000000 Zn
0.500000 0.500000 0.156127 Zn
0.000000 0.000000 0.312254 Zn
0.500000 0.500000 0.478850 Zn
0.000000 0.000000 0.656127 Zn
0.500000 0.500000 0.833404 Zn
0.500000 0.250000 0.000000 Se
0.000000 0.750000 0.156127 Se
0.500000 0.250000 0.312254 Se
0.000000 0.750000 0.478850 Te
0.500000 0.250000 0.656127 Te
0.000000 0.750000 0.833404 Te
