GaAs3AlSb3_001
1.0
4.125925 0.000000 0.000000
0.000000 4.125925 0.000000
0.000000 0.000000 17.698612
Ga As Al Sb 
3 3 3 3 
direct
0.000000 0.000000 0.000000 Ga
0.500000 0.500000 0.154737 Ga
0.000000 0.000000 0.309474 Ga
0.500000 0.000000 0.077369 As
1.000000 0.500000 0.232106 As
0.500000 0.000000 0.386843 As
0.500000 0.500000 0.464421 Al
0.000000 0.000000 0.643039 Al
0.500000 0.500000 0.821658 Al
1.000000 0.500000 0.553730 Sb
0.500000 0.000000 0.732349 Sb
1.000000 0.500000 0.910968 Sb
