InSb3InAs3_001
1.0
4.428904 0.000000 0.000000
0.000000 4.428904 0.000000
0.000000 0.000000 18.891532
In Sb As 
6 3 3 
direct
0.000000 0.000000 0.000000 In
0.500000 0.500000 0.177696 In
0.000000 0.000000 0.355393 In
0.500000 0.500000 0.533089 In
0.000000 0.000000 0.688726 In
0.500000 0.500000 0.844363 In
0.500000 0.000000 0.088848 Sb
1.000000 0.500000 0.266544 Sb
0.500000 0.000000 0.444241 Sb
1.000000 0.500000 0.610907 As
0.500000 0.000000 0.766544 As
1.000000 0.500000 0.922181 As
