GaP3InAs3_001
1.0
4.019210 0.000000 0.000000
0.000000 4.019210 0.000000
0.000000 0.000000 17.562807
Ga P In As 
3 3 3 3 
direct
0.000000 0.000000 0.000000 Ga
0.500000 0.500000 0.148036 Ga
0.000000 0.000000 0.296072 Ga
0.500000 0.000000 0.074018 P
1.000000 0.500000 0.222054 P
0.500000 0.000000 0.370090 P
0.500000 0.500000 0.456631 In
0.000000 0.000000 0.641989 In
0.500000 0.500000 0.827348 In
1.000000 0.500000 0.549310 As
0.500000 0.000000 0.734668 As
1.000000 0.500000 0.920027 As
