ZnTe3ZnS3_110
1.0
4.025185 0.000000 0.000000
0.000000 5.692471 0.000000
0.000000 0.000000 12.240128
Zn Te S 
6 3 3 
direct
0.000000 0.000000 0.000000 Zn
0.500000 0.500000 0.184026 Zn
0.000000 0.000000 0.368052 Zn
0.500000 0.500000 0.534925 Zn
0.000000 0.000000 0.684026 Zn
0.500000 0.500000 0.833127 Zn
0.500000 0.250000 0.000000 Te
0.000000 0.750000 0.184026 Te
0.500000 0.250000 0.368052 Te
0.000000 0.750000 0.534925 S
0.500000 0.250000 0.684026 S
0.000000 0.750000 0.833127 S
