GaAs3InAs3_001
1.0
4.117916 0.000000 0.000000
0.000000 4.117916 0.000000
0.000000 0.000000 17.770191
Ga As In 
3 6 3 
direct
0.000000 0.000000 0.000000 Ga
0.500000 0.500000 0.154412 Ga
0.000000 0.000000 0.308823 Ga
0.500000 0.000000 0.077206 As
1.000000 0.500000 0.231617 As
0.500000 0.000000 0.386029 As
1.000000 0.500000 0.564951 As
0.500000 0.000000 0.743872 As
1.000000 0.500000 0.922794 As
0.500000 0.500000 0.475490 In
0.000000 0.000000 0.654412 In
0.500000 0.500000 0.833333 In
