AlSb3GaAs3_001
1.0
4.125925 0.000000 0.000000
0.000000 4.125925 0.000000
0.000000 0.000000 17.698612
Al Sb Ga As 
3 3 3 3 
direct
0.000000 0.000000 0.000000 Al
0.500000 0.500000 0.178619 Al
0.000000 0.000000 0.357238 Al
0.500000 0.000000 0.089309 Sb
1.000000 0.500000 0.267928 Sb
0.500000 0.000000 0.446547 Sb
0.500000 0.500000 0.535579 Ga
0.000000 0.000000 0.690317 Ga
0.500000 0.500000 0.845054 Ga
1.000000 0.500000 0.612948 As
0.500000 0.000000 0.767685 As
1.000000 0.500000 0.922422 As
