InP3GaP3_001
1.0
3.965915 0.000000 0.000000
0.000000 3.965915 0.000000
0.000000 0.000000 17.149024
In P Ga 
3 6 3 
direct
0.000000 0.000000 0.000000 In
0.500000 0.500000 0.179734 In
0.000000 0.000000 0.359469 In
0.500000 0.000000 0.089867 P
1.000000 0.500000 0.269602 P
0.500000 0.000000 0.449336 P
1.000000 0.500000 0.602935 P
0.500000 0.000000 0.756534 P
1.000000 0.500000 0.910133 P
0.500000 0.500000 0.526136 Ga
0.000000 0.000000 0.679734 Ga
0.500000 0.500000 0.833333 Ga
