AlSb3GaSb3_001
1.0
4.299209 0.000000 0.000000
0.000000 4.299209 0.000000
0.000000 0.000000 18.240000
Al Sb Ga 
3 6 3 
direct
0.000000 0.000000 0.000000 Al
0.500000 0.500000 0.166667 Al
0.000000 0.000000 0.333333 Al
0.500000 0.000000 0.083333 Sb
1.000000 0.500000 0.250000 Sb
0.500000 0.000000 0.416667 Sb
1.000000 0.500000 0.583333 Sb
0.500000 0.000000 0.750000 Sb
1.000000 0.500000 0.916667 Sb
0.500000 0.500000 0.500000 Ga
0.000000 0.000000 0.666667 Ga
0.500000 0.500000 0.833333 Ga
