InSb3GaSb3_110
1.0
4.421937 0.000000 0.000000
0.000000 6.253563 0.000000
0.000000 0.000000 13.375663
In Sb Ga 
3 6 3 
direct
0.000000 0.000000 0.000000 In
0.500000 0.500000 0.175461 In
0.000000 0.000000 0.350922 In
0.500000 0.250000 0.000000 Sb
0.000000 0.750000 0.175461 Sb
0.500000 0.250000 0.350922 Sb
0.000000 0.750000 0.517361 Sb
0.500000 0.250000 0.675461 Sb
0.000000 0.750000 0.833561 Sb
0.500000 0.500000 0.517361 Ga
0.000000 0.000000 0.675461 Ga
0.500000 0.500000 0.833561 Ga
