InP3InSb3_001
1.0
4.333273 0.000000 0.000000
0.000000 4.333273 0.000000
0.000000 0.000000 18.658515
In P Sb 
6 3 3 
direct
0.000000 0.000000 0.000000 In
0.500000 0.500000 0.149504 In
0.000000 0.000000 0.299008 In
0.500000 0.500000 0.448511 In
0.000000 0.000000 0.632341 In
0.500000 0.500000 0.816170 In
0.500000 0.000000 0.074752 P
1.000000 0.500000 0.224256 P
0.500000 0.000000 0.373760 P
1.000000 0.500000 0.540426 Sb
0.500000 0.000000 0.724256 Sb
1.000000 0.500000 0.908085 Sb
