GaP3GaAs3_001
1.0
3.912174 0.000000 0.000000
0.000000 3.912174 0.000000
0.000000 0.000000 16.644907
Ga P As 
6 3 3 
direct
0.000000 0.000000 0.000000 Ga
0.500000 0.500000 0.160319 Ga
0.000000 0.000000 0.320639 Ga
0.500000 0.500000 0.480958 Ga
0.000000 0.000000 0.653972 Ga
0.500000 0.500000 0.826986 Ga
0.500000 0.000000 0.080160 P
1.000000 0.500000 0.240479 P
0.500000 0.000000 0.400798 P
1.000000 0.500000 0.567465 As
0.500000 0.000000 0.740479 As
1.000000 0.500000 0.913493 As
