InP3GaAs3_110
1.0
4.051593 0.000000 0.000000
0.000000 5.729818 0.000000
0.000000 0.000000 12.265576
In P Ga As 
3 3 3 3 
direct
0.000000 0.000000 0.000000 In
0.500000 0.500000 0.172139 In
0.000000 0.000000 0.344279 In
0.500000 0.250000 0.000000 P
0.000000 0.750000 0.172139 P
0.500000 0.250000 0.344279 P
0.500000 0.500000 0.510614 Ga
0.000000 0.000000 0.672139 Ga
0.500000 0.500000 0.833665 Ga
0.000000 0.750000 0.510614 As
0.500000 0.250000 0.672139 As
0.000000 0.750000 0.833665 As
