InSb3InAs3_110
1.0
4.427069 0.000000 0.000000
0.000000 6.260821 0.000000
0.000000 0.000000 13.353196
In Sb As 
6 3 3 
direct
0.000000 0.000000 0.000000 In
0.500000 0.500000 0.175622 In
0.000000 0.000000 0.351244 In
0.500000 0.500000 0.517868 In
0.000000 0.000000 0.675622 In
0.500000 0.500000 0.833376 In
0.500000 0.250000 0.000000 Sb
0.000000 0.750000 0.175622 Sb
0.500000 0.250000 0.351244 Sb
0.000000 0.750000 0.517868 As
0.500000 0.250000 0.675622 As
0.000000 0.750000 0.833376 As
