GaAs3InP3_001
1.0
4.054429 0.000000 0.000000
0.000000 4.054429 0.000000
0.000000 0.000000 17.396804
Ga As In P 
3 3 3 3 
direct
0.000000 0.000000 0.000000 Ga
0.500000 0.500000 0.160136 Ga
0.000000 0.000000 0.320272 Ga
0.500000 0.000000 0.080068 As
1.000000 0.500000 0.240204 As
0.500000 0.000000 0.400340 As
0.500000 0.500000 0.493124 In
0.000000 0.000000 0.666244 In
0.500000 0.500000 0.839364 In
1.000000 0.500000 0.579684 P
0.500000 0.000000 0.752804 P
1.000000 0.500000 0.925924 P
