GaP3AlSb3_001
1.0
4.025199 0.000000 0.000000
0.000000 4.025199 0.000000
0.000000 0.000000 17.472761
Ga P Al Sb 
3 3 3 3 
direct
0.000000 0.000000 0.000000 Ga
0.500000 0.500000 0.148579 Ga
0.000000 0.000000 0.297159 Ga
0.500000 0.000000 0.074290 P
1.000000 0.500000 0.222869 P
0.500000 0.000000 0.371448 P
0.500000 0.500000 0.445554 Al
0.000000 0.000000 0.630517 Al
0.500000 0.500000 0.815480 Al
1.000000 0.500000 0.538036 Sb
0.500000 0.000000 0.722999 Sb
1.000000 0.500000 0.907962 Sb
