CdTe3ZnTe3_001
1.0
4.411259 0.000000 0.000000
0.000000 4.411259 0.000000
0.000000 0.000000 19.076507
Cd Te Zn 
3 6 3 
direct
0.000000 0.000000 0.000000 Cd
0.500000 0.500000 0.178718 Cd
0.000000 0.000000 0.357436 Cd
0.500000 0.000000 0.089359 Te
1.000000 0.500000 0.268077 Te
0.500000 0.000000 0.446795 Te
1.000000 0.500000 0.601411 Te
0.500000 0.000000 0.756026 Te
1.000000 0.500000 0.910641 Te
0.500000 0.500000 0.524103 Zn
0.000000 0.000000 0.678718 Zn
0.500000 0.500000 0.833333 Zn
