InAs3GaSb3_110
1.0
4.271058 0.000000 0.000000
0.000000 6.040188 0.000000
0.000000 0.000000 12.933224
In As Ga Sb 
3 3 3 3 
direct
0.000000 0.000000 0.000000 In
0.500000 0.500000 0.166941 In
0.000000 0.000000 0.333883 In
0.500000 0.250000 0.000000 As
0.000000 0.750000 0.166941 As
0.500000 0.250000 0.333883 As
0.500000 0.500000 0.500114 Ga
0.000000 0.000000 0.666941 Ga
0.500000 0.500000 0.833769 Ga
0.000000 0.750000 0.500114 Sb
0.500000 0.250000 0.666941 Sb
0.000000 0.750000 0.833769 Sb
