GaP3AlP3_001
1.0
3.839590 0.000000 0.000000
0.000000 3.839590 0.000000
0.000000 0.000000 16.290000
Ga P Al 
3 6 3 
direct
0.000000 0.000000 0.000000 Ga
0.500000 0.500000 0.166667 Ga
0.000000 0.000000 0.333333 Ga
0.500000 0.000000 0.083333 P
1.000000 0.500000 0.250000 P
0.500000 0.000000 0.416667 P
1.000000 0.500000 0.583333 P
0.500000 0.000000 0.750000 P
1.000000 0.500000 0.916667 P
0.500000 0.500000 0.500000 Al
0.000000 0.000000 0.666667 Al
0.500000 0.500000 0.833333 Al
