ZnSe3ZnS3_001
1.0
3.899064 0.000000 0.000000
0.000000 3.899064 0.000000
0.000000 0.000000 16.607216
Zn Se S 
6 3 3 
direct
0.000000 0.000000 0.000000 Zn
0.500000 0.500000 0.175041 Zn
0.000000 0.000000 0.350082 Zn
0.500000 0.500000 0.525123 Zn
0.000000 0.000000 0.683415 Zn
0.500000 0.500000 0.841708 Zn
0.500000 0.000000 0.087520 Se
1.000000 0.500000 0.262561 Se
0.500000 0.000000 0.437602 Se
1.000000 0.500000 0.604269 S
0.500000 0.000000 0.762561 S
1.000000 0.500000 0.920854 S
