AlSb3InP3_001
1.0
4.203157 0.000000 0.000000
0.000000 4.203157 0.000000
0.000000 0.000000 18.000547
Al Sb In P 
3 3 3 3 
direct
0.000000 0.000000 0.000000 Al
0.500000 0.500000 0.172619 Al
0.000000 0.000000 0.345238 Al
0.500000 0.000000 0.086310 Sb
1.000000 0.500000 0.258929 Sb
0.500000 0.000000 0.431548 Sb
0.500000 0.500000 0.529583 In
0.000000 0.000000 0.690312 In
0.500000 0.500000 0.851041 In
1.000000 0.500000 0.609947 P
0.500000 0.000000 0.770676 P
1.000000 0.500000 0.931405 P
