InP3GaAs3_001
1.0
4.054429 0.000000 0.000000
0.000000 4.054429 0.000000
0.000000 0.000000 17.396804
In P Ga As 
3 3 3 3 
direct
0.000000 0.000000 0.000000 In
0.500000 0.500000 0.173120 In
0.000000 0.000000 0.346240 In
0.500000 0.000000 0.086560 P
1.000000 0.500000 0.259680 P
0.500000 0.000000 0.432800 P
0.500000 0.500000 0.506876 Ga
0.000000 0.000000 0.667011 Ga
0.500000 0.500000 0.827147 Ga
1.000000 0.500000 0.586943 As
0.500000 0.000000 0.747079 As
1.000000 0.500000 0.907215 As
