InSb3GaP3_001
1.0
4.109243 0.000000 0.000000
0.000000 4.109243 0.000000
0.000000 0.000000 18.423451
In Sb Ga P 
3 3 3 3 
direct
0.000000 0.000000 0.000000 In
0.500000 0.500000 0.195461 In
0.000000 0.000000 0.390923 In
0.500000 0.000000 0.097731 Sb
1.000000 0.500000 0.293192 Sb
0.500000 0.000000 0.488653 Sb
0.500000 0.500000 0.574474 Ga
0.000000 0.000000 0.712464 Ga
0.500000 0.500000 0.850454 Ga
1.000000 0.500000 0.643469 P
0.500000 0.000000 0.781459 P
1.000000 0.500000 0.919449 P
