AlAs3InP3_110
1.0
4.057044 0.000000 0.000000
0.000000 5.737526 0.000000
0.000000 0.000000 12.253259
Al As In P 
3 3 3 3 
direct
0.000000 0.000000 0.000000 Al
0.500000 0.500000 0.161468 Al
0.000000 0.000000 0.322937 Al
0.500000 0.250000 0.000000 As
0.000000 0.750000 0.161468 As
0.500000 0.250000 0.322937 As
0.500000 0.500000 0.489318 In
0.000000 0.000000 0.661468 In
0.500000 0.500000 0.833619 In
0.000000 0.750000 0.489318 P
0.500000 0.250000 0.661468 P
0.000000 0.750000 0.833619 P
