InSb3GaAs3_110
1.0
4.243802 0.000000 0.000000
0.000000 6.001643 0.000000
0.000000 0.000000 13.002732
In Sb Ga As 
3 3 3 3 
direct
0.000000 0.000000 0.000000 In
0.500000 0.500000 0.185275 In
0.000000 0.000000 0.370549 In
0.500000 0.250000 0.000000 Sb
0.000000 0.750000 0.185275 Sb
0.500000 0.250000 0.370549 Sb
0.500000 0.500000 0.537193 Ga
0.000000 0.000000 0.685275 Ga
0.500000 0.500000 0.833356 Ga
0.000000 0.750000 0.537193 As
0.500000 0.250000 0.685275 As
0.000000 0.750000 0.833356 As
