GaP3AlSb3_110
1.0
4.029799 0.000000 0.000000
0.000000 5.698996 0.000000
0.000000 0.000000 12.298166
Ga P Al Sb 
3 3 3 3 
direct
0.000000 0.000000 0.000000 Ga
0.500000 0.500000 0.151781 Ga
0.000000 0.000000 0.303563 Ga
0.500000 0.250000 0.000000 P
0.000000 0.750000 0.151781 P
0.500000 0.250000 0.303563 P
0.500000 0.500000 0.469970 Al
0.000000 0.000000 0.651781 Al
0.500000 0.500000 0.833593 Al
0.000000 0.750000 0.469970 Sb
0.500000 0.250000 0.651781 Sb
0.000000 0.750000 0.833593 Sb
