AlAs3AlSb3_110
1.0
4.129906 0.000000 0.000000
0.000000 5.840569 0.000000
0.000000 0.000000 12.477917
Al As Sb 
6 3 3 
direct
0.000000 0.000000 0.000000 Al
0.500000 0.500000 0.156763 Al
0.000000 0.000000 0.313526 Al
0.500000 0.500000 0.480141 Al
0.000000 0.000000 0.656763 Al
0.500000 0.500000 0.833384 Al
0.500000 0.250000 0.000000 As
0.000000 0.750000 0.156763 As
0.500000 0.250000 0.313526 As
0.000000 0.750000 0.480141 Sb
0.500000 0.250000 0.656763 Sb
0.000000 0.750000 0.833384 Sb
