GaP3InSb3_001
1.0
4.109243 0.000000 0.000000
0.000000 4.109243 0.000000
0.000000 0.000000 18.423451
Ga P In Sb 
3 3 3 3 
direct
0.000000 0.000000 0.000000 Ga
0.500000 0.500000 0.137990 Ga
0.000000 0.000000 0.275980 Ga
0.500000 0.000000 0.068995 P
1.000000 0.500000 0.206985 P
0.500000 0.000000 0.344975 P
0.500000 0.500000 0.425526 In
0.000000 0.000000 0.620987 In
0.500000 0.500000 0.816448 In
1.000000 0.500000 0.523256 Sb
0.500000 0.000000 0.718718 Sb
1.000000 0.500000 0.914179 Sb
