GaSb3GaAs3_110
1.0
4.129833 0.000000 0.000000
0.000000 5.840465 0.000000
0.000000 0.000000 12.469772
Ga Sb As 
6 3 3 
direct
0.000000 0.000000 0.000000 Ga
0.500000 0.500000 0.176250 Ga
0.000000 0.000000 0.352499 Ga
0.500000 0.500000 0.519188 Ga
0.000000 0.000000 0.676250 Ga
0.500000 0.500000 0.833311 Ga
0.500000 0.250000 0.000000 Sb
0.000000 0.750000 0.176250 Sb
0.500000 0.250000 0.352499 Sb
0.000000 0.750000 0.519188 As
0.500000 0.250000 0.676250 As
0.000000 0.750000 0.833311 As
