InP3GaP3_110
1.0
3.973635 0.000000 0.000000
0.000000 5.619569 0.000000
0.000000 0.000000 12.053103
In P Ga 
3 6 3 
direct
0.000000 0.000000 0.000000 In
0.500000 0.500000 0.177525 In
0.000000 0.000000 0.355050 In
0.500000 0.250000 0.000000 P
0.000000 0.750000 0.177525 P
0.500000 0.250000 0.355050 P
0.000000 0.750000 0.521355 P
0.500000 0.250000 0.677525 P
0.000000 0.750000 0.833695 P
0.500000 0.500000 0.521355 Ga
0.000000 0.000000 0.677525 Ga
0.500000 0.500000 0.833695 Ga
