AlAs3GaSb3_110
1.0
4.131015 0.000000 0.000000
0.000000 5.842138 0.000000
0.000000 0.000000 12.463425
Al As Ga Sb 
3 3 3 3 
direct
0.000000 0.000000 0.000000 Al
0.500000 0.500000 0.156918 Al
0.000000 0.000000 0.313835 Al
0.500000 0.250000 0.000000 As
0.000000 0.750000 0.156918 As
0.500000 0.250000 0.313835 As
0.500000 0.500000 0.480605 Ga
0.000000 0.000000 0.656918 Ga
0.500000 0.500000 0.833230 Ga
0.000000 0.750000 0.480605 Sb
0.500000 0.250000 0.656918 Sb
0.000000 0.750000 0.833230 Sb
