GaSb3GaP3_001
1.0
4.029762 0.000000 0.000000
0.000000 4.029762 0.000000
0.000000 0.000000 17.419646
Ga Sb P 
6 3 3 
direct
0.000000 0.000000 0.000000 Ga
0.500000 0.500000 0.184469 Ga
0.000000 0.000000 0.368938 Ga
0.500000 0.500000 0.553406 Ga
0.000000 0.000000 0.702271 Ga
0.500000 0.500000 0.851135 Ga
0.500000 0.000000 0.092234 Sb
1.000000 0.500000 0.276703 Sb
0.500000 0.000000 0.461172 Sb
1.000000 0.500000 0.627839 P
0.500000 0.000000 0.776703 P
1.000000 0.500000 0.925568 P
