POSCAR_ni2
4.9999818022
0.9 0 0 
0 1 0 
0 0 1.1 
Ni Ni 
1 1 
Direct
0.119183974351 0.119183974351 0.119183974351
-0.119183974351 -0.119183974351 -0.119183974351
