POSCAR_cugase2
5.61481139142
1.0 0.0 0.0 
0.0 1.0 0.0 
0.5 0.5 0.9815 
Cu Cu Ga Ga Se Se Se Se 
1 1 1 1 1 1 1 1 
Cartesian
0.0 0.0 0.0
0.0 2.80740569571 2.75546869034
2.80740569571 2.80740569571 0.0
2.80740569571 0.0 2.75546869034
1.45423615038 1.40370284785 1.37773434517
-1.45423615038 4.21110854357 1.37773434517
1.40370284785 4.26164184609 4.13320303551
4.21110854357 1.35316954533 4.13320303551
